%nprocshared=20
%mem=16GB
%chk=sN_y.chk
# cam-b3lyp/6-311g(d,p) td=(nstates=1, root=1) nosymm Field=Y+1 density=current

TITLE

 0  1
S          1.44353       -7.39633       -1.17520
F          0.96962        4.76822       -3.19048
N         -5.38340       -1.50045       -1.60490
S          0.51351       -3.13066       -1.82072
F         -1.59882        5.43963       -3.09177
C          2.85187       -5.26965       -1.66522
H          3.12793       -4.24534       -1.87483
C          3.97628       -9.96269       -0.94672
H          2.99795      -10.39728       -0.78067
C          5.84832       -4.73367       -3.39498
H          5.75871       -3.99674       -2.60573
O         -1.25088       -6.49562       -1.10643
C          5.80954       -6.99924       -4.13851
H          5.67362       -8.05631       -3.95114
C          5.26553       -6.50972       -1.68281
O          0.69549       -0.46957       -2.28246
C          5.46080       -5.40846        0.61116
H          4.40552       -5.59302        0.76807
C          4.12033       -8.60270       -1.20678
C         -1.83583       -4.13280       -1.45779
H         -2.90900       -4.20915       -1.35671
C          5.11780      -10.73702       -0.90795
C          0.37816       -4.82652       -1.52409
C          3.75856       -6.33547       -1.55389
C          5.68095       -6.08718       -3.09877
C          3.14703       -7.53172       -1.29664
C          6.05467       -5.77315       -0.59230
C         -0.94950       -5.20317       -1.35035
C          1.54439       -5.66741       -1.48082
C         -1.21436       -2.91472       -1.71453
C         -0.52692        1.57659       -2.52806
C         -1.99720       -1.74089       -1.84767
H         -3.04438       -1.97952       -1.72135
C          6.14055       -4.31472       -4.68069
H          6.26377       -3.25519       -4.87900
C         -0.35895        0.12594       -2.29675
C         -2.61845       -6.83207       -0.94329
H         -3.18993       -6.60264       -1.84716
H         -3.05314       -6.30648       -0.08825
C         -4.76814       -0.55243       -1.81664
C          7.56116       -4.56269        1.46889
C         -1.70936       -0.42749       -2.09234
C          6.10500       -6.57408       -5.42802
H          6.19886       -7.31091       -6.21841
C          0.07333        3.81200       -2.95503
C          0.46647        2.50583       -2.76690
H          1.51067        2.22373       -2.80533
C          7.41771       -5.52654       -0.74670
H          7.90948       -5.78845       -1.67564
C          6.27872       -5.22887       -5.72388
C          6.20261       -4.81348        1.62175
H          5.71028       -4.53972        2.54874
C         -1.87929        1.90700       -2.47225
C         -2.66652        0.67600       -2.19926
C          8.35781       -3.88741        2.55230
H          7.91415       -4.05564        3.53468
H          9.38529       -4.25450        2.57715
C          8.15500       -4.93453        0.26571
H          9.21448       -4.75556        0.11584
C          6.62185       -4.76766       -7.11453
H          6.03521       -3.89122       -7.39724
H          6.43427       -5.55108       -7.84980
C         -1.27412        4.16153       -2.90280
C         -2.26481        3.23157       -2.66401
H         -3.28741        3.57547       -2.63764
C         -4.02742        0.63773       -2.07964
N         -5.54415        2.70713       -2.30308
C         -4.85387        1.79324       -2.20613
S          9.05705      -11.36454       -1.16740
F          9.53091      -23.52911        0.84767
N         15.88414      -17.26049       -0.73737
S          9.98707      -15.63021       -0.52188
F         12.09935      -24.20052        0.74904
C          7.64871      -13.49122       -0.67738
H          7.37265      -14.51552       -0.46776
C          6.52430       -8.79818       -1.39591
H          7.50263       -8.36359       -1.56195
C          4.65229      -14.02720        1.05237
H          4.74193      -14.76414        0.26312
O         11.75147      -12.26524       -1.23612
C          4.69100      -11.76161        1.79587
H          4.82689      -10.70455        1.60849
C          5.23506      -12.25114       -0.65982
O          9.80508      -18.29129       -0.06019
C          5.03982      -13.35249       -2.95375
H          6.09511      -13.16798       -3.11063
C          6.38025      -10.15817       -1.13584
C         12.33642      -14.62806       -0.88476
H         13.40958      -14.55171       -0.98582
C          5.38278       -8.02385       -1.43468
C         10.12242      -13.93434       -0.81849
C          6.74202      -12.42540       -0.78872
C          4.81963      -12.67369        0.75615
C          7.35355      -11.22915       -1.04597
C          4.44592      -12.98772       -1.75033
C         11.45008      -13.55769       -0.99220
C          8.95619      -13.09345       -0.86178
C         11.71494      -15.84615       -0.62803
C         11.02748      -20.33747        0.18540
C         12.49779      -17.01998       -0.49488
H         13.54496      -16.78133       -0.62118
C          4.36006      -14.44614        2.33809
H          4.23687      -15.50567        2.53641
C         10.85952      -18.88681       -0.04588
C         13.11905      -11.92877       -1.39910
H         13.69044      -12.15823       -0.49517
H         13.55383      -12.45431       -2.25412
C         15.26877      -18.20847       -0.52579
C          2.93944      -14.19818       -3.81153
C         12.20994      -18.33338       -0.25023
C          4.39554      -12.18677        3.08538
H          4.30164      -11.44993        3.87576
C         10.42721      -22.57288        0.61228
C         10.03408      -21.26671        0.42418
H          8.98988      -20.98461        0.46258
C          3.08286      -13.23426       -1.59597
H          2.59107      -12.97229       -0.66706
C          4.22186      -13.53198        3.38126
C          4.29801      -13.94746       -3.96435
H          4.79036      -14.22129       -4.89131
C         12.37984      -20.66788        0.12963
C         13.16710      -19.43687       -0.14330
C          2.14277      -14.87345       -4.89494
H          2.58703      -14.70612       -5.87720
H          1.11560      -14.50555       -4.92047
C          2.34558      -13.82627       -2.60838
H          1.28608      -14.00519       -2.45854
C          3.87874      -13.99318        4.77191
H          4.46554      -14.86949        5.05470
H          4.06612      -13.20969        5.50716
C         11.77466      -22.92241        0.56009
C         12.76536      -21.99245        0.32136
H         13.78796      -22.33635        0.29501
C         14.52800      -19.39862       -0.26286
N         16.04465      -21.46807       -0.03939
C         15.35442      -20.55415       -0.13636
H         -2.64574       -7.90322       -0.76081
H          8.39999       -2.80635        2.39114
H          2.09966      -15.95438       -4.73318
H         13.14634      -10.85760       -1.58153
H          7.67733       -4.49071       -7.18707
H          2.82331      -14.27034        4.84441


