%chk=molec.chk
# ub3lyp/6-31g(d,p) geom=connectivity polar

IT-4F-cut

1 2
 C                 -8.57886863   -0.97776240    0.00591111
 H                 -8.67141871   -2.05709677   -0.02234494
 C                 -9.76703158   -0.28803564    0.02338768
 C                -11.11344207   -0.90445615    0.01424424
 C                 -9.96249706    1.19998876    0.02308251
 O                 -9.11085803    2.07763838    0.04875922
 C                -12.10083813    0.19875045   -0.03268899
 C                -11.41766893    1.42691153   -0.02167388
 C                -13.49755814    0.20269786   -0.07946336
 H                -14.08634572   -0.70334716   -0.09286087
 C                -14.17085269    1.42871713   -0.11240911
 Cl               -15.90439296    1.40598672   -0.17196261
 C                -12.07182313    2.64844988   -0.05184251
 H                -11.51069855    3.57586995   -0.04040102
 C                -13.46568796    2.65347644   -0.09776859
 Cl               -14.29931194    4.17391479   -0.13665389
 C                -11.43277974   -2.24631508    0.05898106
 C                -12.77901460   -2.72853399    0.04707699
 N                -13.86000190   -3.16083702    0.03789405
 C                -10.47548630   -3.30622559    0.13054650
 N                 -9.72223302   -4.19283261    0.18999925
 C                 -7.21042055   -0.55821467    0.01355315
 S                 -6.02215039   -1.88367677   -0.04659178
 C                 -6.58847027    0.69582972    0.07169034
 H                 -7.16263161    1.61078414    0.11505977
 C                 -5.19948586    0.57826369    0.06347980
 C                 -4.71107372   -0.75310919   -0.00056092
 S                 -3.89865149    1.76470006    0.11614922
 C                 -3.31534292   -0.82124476   -0.01919929
 C                 -2.74320519    0.45921356    0.04208086
 C                 -1.32419338    0.38223912    0.02965812
 C                 -0.97791149   -1.01151815   -0.01551669
 C                 -2.23892701   -1.90220164   -0.04693042
 C                  0.34232128   -1.39653515   -0.04922566
 H                  0.62451127   -2.44316764   -0.09279299
 C                  1.32420241   -0.38224404   -0.02963752
 C                 -0.34231223    1.39653029    0.04924662
 H                 -0.62450229    2.44316276    0.09281374
 C                  0.97792053    1.01151330    0.01553808
 C                  2.23893627    1.90219657    0.04695185
 C                  2.74321430   -0.45921849   -0.04206252
 C                  3.31535203    0.82123964    0.01921704
 S                  3.89866052   -1.76470484   -0.11613400
 C                  4.71108286    0.75310402    0.00057430
 S                  6.02215949    1.88367179    0.04660210
 C                  5.19949485   -0.57826854   -0.06346875
 C                  6.58847932   -0.69583437   -0.07168445
 H                  7.16264198   -1.61078803   -0.11505634
 C                  7.21042907    0.55820972   -0.01354929
 C                  8.57887784    0.97775499   -0.00591285
 H                  8.67143438    2.05709033    0.02234316
 C                  9.76703750    0.28802446   -0.02339668
 C                 11.11344128    0.90445195   -0.01425792
 C                  9.96250732   -1.19999827   -0.02309859
 O                  9.11087020   -2.07764986   -0.04877369
 C                 12.10084665   -0.19875018    0.03266346
 C                 11.41768067   -1.42691451    0.02164729
 C                 13.49756767   -0.20269749    0.07943026
 H                 14.08635604    0.70334586    0.09282970
 C                 14.17086412   -1.42871599    0.11236599
 Cl                15.90440465   -1.40598307    0.17191002
 C                 12.07183731   -2.64845176    0.05180609
 H                 11.51071448   -3.57587275    0.04036377
 C                 13.46570209   -2.65347649    0.09772350
 C                 11.43273593    2.24632072   -0.05898854
 C                 12.77894814    2.72860344   -0.04708983
 N                 13.85990464    3.16098328   -0.03791190
 C                 10.47538972    3.30618484   -0.13053339
 N                  9.72206442    4.19273191   -0.18996864
 C                  2.40933683    2.76899551   -1.22163742
 C                  3.28520477    3.86487317   -1.21259835
 H                  3.77339077    4.16192669   -0.29010803
 C                  3.52446498    4.59744027   -2.37284909
 H                  4.20734851    5.44183605   -2.33392734
 C                  2.90159056    4.26781663   -3.58432676
 C                  2.03612678    3.16766957   -3.58964283
 H                  1.54257890    2.88047685   -4.51427061
 C                  1.79568363    2.42716023   -2.43281170
 H                  1.12470106    1.57608032   -2.48525909
 C                  2.22571590    2.72091332    1.35436253
 C                  2.80379683    2.23076624    2.53073566
 H                  3.33124777    1.28209037    2.52700188
 C                  2.71154827    2.94548635    3.72529721
 H                  3.17612260    2.54229499    4.62107131
 C                  2.03532828    4.16851126    3.79118105
 C                  1.44746662    4.64955556    2.61264453
 H                  0.91342897    5.59602501    2.62948930
 C                  1.54019082    3.94351716    1.41617920
 H                  1.09057234    4.35854650    0.51968776
 C                 -2.22570371   -2.72091873   -1.35434116
 C                 -1.54014524   -3.94350326   -1.41616873
 H                 -1.09050157   -4.35852043   -0.51968441
 C                 -1.44741797   -4.64953769   -2.61263615
 H                 -0.91335404   -5.59599210   -2.62948938
 C                 -2.03530900   -4.16850834   -3.79116403
 C                 -2.71156125   -2.94550182   -3.72526972
 H                 -3.17615853   -2.54232202   -4.62103715
 C                 -2.80381296   -2.23078552   -2.53070618
 H                 -3.33128937   -1.28212371   -2.52696425
 C                 -2.40932964   -2.76899862    1.22165979
 C                 -3.28521230   -3.86486447    1.21262740
 H                 -3.77340878   -4.16191201    0.29014073
 C                 -3.52447459   -4.59742755    2.37288029
 H                 -4.20736972   -5.44181419    2.33396371
 C                 -2.90158794   -4.26781131    3.58435350
 C                 -2.03610991   -3.16767544    3.58966322
 H                 -1.54255259   -2.88048826    4.51428770
 C                 -1.79566472   -2.42717012    2.43283010
 H                 -1.12467118   -1.57609858    2.48527264
 C                  3.13952458    5.08489293   -4.83007580
 H                  2.47282266    5.95525022   -4.86237327
 H                  2.95553871    4.49910357   -5.73472470
 H                  4.16533095    5.46220831   -4.87042895
 C                  1.96423302    4.95815860    5.07493706
 H                  2.74419214    5.72852391    5.10484794
 H                  2.10528958    4.31645479    5.94871922
 H                  1.00223033    5.46872820    5.17811082
 C                 -1.96420938   -4.95815219   -5.07492195
 H                 -2.74414723   -5.72853941   -5.10482287
 H                 -1.00219378   -5.46869460   -5.17810962
 H                 -2.10529607   -4.31645137   -5.94870143
 C                 -3.13952391   -5.08488339    4.83010492
 H                 -2.95554737   -4.49908847    5.73475222
 H                 -2.47281580   -5.95523566    4.86241075
 H                 -4.16532781   -5.46220577    4.87045380
 Cl                14.29932898   -4.17391363    0.13659664

 1 2 1.0 3 2.0 22 1.5
 2
 3 4 1.0 5 1.0
 4 7 1.0 17 2.0
 5 6 2.0 8 1.0
 6
 7 8 1.5 9 1.5
 8 13 2.0
 9 10 1.0 11 1.5
 10
 11 12 1.0 15 1.5
 12
 13 14 1.0 15 1.5
 14
 15 16 1.0
 16
 17 18 1.5 20 1.5
 18 19 3.0
 19
 20 21 3.0
 21
 22 23 1.0 24 1.5
 23 27 1.0
 24 25 1.0 26 1.5
 25
 26 27 1.5 28 1.0
 27 29 1.5
 28 30 1.0
 29 30 2.0 33 1.0
 30 31 1.5
 31 32 1.5 37 1.5
 32 33 1.0 34 2.0
 33 90 1.0 100 1.0
 34 35 1.0 36 1.5
 35
 36 39 1.5 41 1.5
 37 38 1.0 39 2.0
 38
 39 40 1.0
 40 42 1.0 70 1.0 80 1.0
 41 42 2.0 43 1.0
 42 44 1.5
 43 46 1.0
 44 45 1.0 46 1.5
 45 49 1.0
 46 47 1.5
 47 48 1.0 49 1.5
 48
 49 50 1.5
 50 51 1.0 52 2.0
 51
 52 53 1.0 54 1.0
 53 56 1.0 65 2.0
 54 55 2.0 57 1.0
 55
 56 57 1.5 58 1.5
 57 62 2.0
 58 59 1.0 60 1.5
 59
 60 61 1.0 64 1.5
 61
 62 63 1.0 64 1.5
 63
 64 126 1.0
 65 66 1.5 68 1.5
 66 67 3.0
 67
 68 69 3.0
 69
 70 71 1.5 78 1.5
 71 72 1.0 73 1.5
 72
 73 74 1.0 75 1.5
 74
 75 76 1.5 110 1.0
 76 77 1.0 78 1.5
 77
 78 79 1.0
 79
 80 81 1.5 88 1.5
 81 82 1.0 83 1.5
 82
 83 84 1.0 85 1.5
 84
 85 86 1.5 114 1.0
 86 87 1.0 88 1.5
 87
 88 89 1.0
 89
 90 91 1.5 98 1.5
 91 92 1.0 93 1.5
 92
 93 94 1.0 95 1.5
 94
 95 96 1.5 118 1.0
 96 97 1.0 98 1.5
 97
 98 99 1.0
 99
 100 101 1.5 108 1.5
 101 102 1.0 103 1.5
 102
 103 104 1.0 105 1.5
 104
 105 106 1.5 122 1.0
 106 107 1.0 108 1.5
 107
 108 109 1.0
 109
 110 111 1.0 112 1.0 113 1.0
 111
 112
 113
 114 115 1.0 116 1.0 117 1.0
 115
 116
 117
 118 119 1.0 120 1.0 121 1.0
 119
 120
 121
 122 123 1.0 124 1.0 125 1.0
 123
 124
 125
 126

