%nprocshared=20
%mem=16GB
#P polar  b3lyp/6-311G(d,p) nosymm 

TITLE

-1 2
S          1.42167       -7.41016       -1.18683
F          0.95511        4.85370       -3.20118
N         -5.46751       -1.43528       -1.58929
S          0.50013       -3.09805       -1.83684
F         -1.64426        5.51795       -3.08218
C          2.84779       -5.26418       -1.68107
H          3.11959       -4.23829       -1.88967
C          3.97121       -9.97138       -0.95053
H          2.99130      -10.40554       -0.78941
C          5.84616       -4.71182       -3.41770
H          5.74263       -3.97101       -2.63332
O         -1.28344       -6.48988       -1.11434
C          5.82822       -6.98894       -4.15643
H          5.69967       -8.04664       -3.96531
C          5.26513       -6.49508       -1.69300
O          0.69260       -0.41577       -2.30174
C          5.45216       -5.37705        0.60755
H          4.39476       -5.55621        0.75805
C          4.10836       -8.59664       -1.21447
C         -1.86680       -4.12505       -1.46080
H         -2.93967       -4.20238       -1.35551
C          5.11287      -10.74423       -0.90376
C          0.36839       -4.82518       -1.53639
C          3.74918       -6.32238       -1.56999
C          5.68642       -6.07106       -3.11465
C          3.14273       -7.54214       -1.30900
C          6.05366       -5.75139       -0.59670
C         -0.98253       -5.18848       -1.35902
C          1.51571       -5.65559       -1.49623
C         -1.25307       -2.88074       -1.72170
C         -0.53968        1.63530       -2.53533
C         -2.02058       -1.71597       -1.84891
H         -3.07115       -1.94119       -1.72032
C          6.14316       -4.29336       -4.70871
H          6.25615       -3.23217       -4.90892
C         -0.37684        0.17633       -2.30687
C         -2.65558       -6.82756       -0.94425
H         -3.23339       -6.59497       -1.84486
H         -3.08787       -6.30128       -0.08674
C         -4.81558       -0.50060       -1.80280
C          7.55837       -4.52724        1.47729
C         -1.72511       -0.37168       -2.09769
C          6.12811       -6.56448       -5.45071
H          6.23098       -7.30503       -6.23782
C          0.04829        3.88822       -2.96104
C          0.44823        2.57241       -2.77784
H          1.49386        2.29383       -2.82352
C          7.42429       -5.50637       -0.74356
H          7.92260       -5.77548       -1.66745
C          6.29414       -5.21311       -5.75283
C          6.19232       -4.77617        1.62311
H          5.69303       -4.49595        2.54550
C         -1.90245        1.95887       -2.46911
C         -2.67331        0.71294       -2.19434
C          8.35196       -3.84494        2.56529
H          7.90324       -4.00929        3.54770
H          9.38105       -4.21162        2.59764
C          8.16009       -4.90810        0.27409
H          9.22179       -4.73330        0.12815
C          6.64039       -4.75340       -7.14847
H          6.04685       -3.88213       -7.43893
H          6.46250       -5.54247       -7.88225
C         -1.30076        4.22985       -2.89880
C         -2.29246        3.28659       -2.65495
H         -3.31769        3.62340       -2.62045
C         -4.06416        0.67748       -2.06558
N         -5.59114        2.74670       -2.27499
C         -4.88735        1.83004       -2.18466
S          9.07891      -11.35071       -1.15579
F          9.54549      -23.61457        0.85859
N         15.96805      -17.32557       -0.75344
S         10.00045      -15.66282       -0.50576
F         12.14487      -24.27880        0.73964
C          7.65279      -13.49669       -0.66155
H          7.38098      -14.52258       -0.45294
C          6.52937       -8.78949       -1.39210
H          7.50928       -8.35533       -1.55322
C          4.65441      -14.04906        1.07506
H          4.75794      -14.78986        0.29068
O         11.78402      -12.27099       -1.22826
C          4.67235      -11.77194        1.81380
H          4.80091      -10.71424        1.62268
C          5.23545      -12.26579       -0.64963
O          9.80799      -18.34510       -0.04086
C          5.04843      -13.38387       -2.95016
H          6.10583      -13.20474       -3.10065
C          6.39221      -10.16423       -1.12816
C         12.36738      -14.63581       -0.88178
H         13.44026      -14.55847       -0.98706
C          5.38771       -8.01664       -1.43887
C         10.13219      -13.93569       -0.80622
C          6.75140      -12.43849       -0.77264
C          4.81415      -12.68981        0.77202
C          7.35785      -11.21873       -1.03363
C          4.44693      -13.00948       -1.74594
C         11.48311      -13.57239       -0.98358
C          8.98487      -13.10528       -0.84638
C         11.75366      -15.88013       -0.62088
C         11.04027      -20.39616        0.19276
C         12.52117      -17.04489       -0.49365
H         13.57174      -16.81967       -0.62223
C          4.35740      -14.46752        2.36608
H          4.24441      -15.52871        2.56628
C         10.87743      -18.93719       -0.03570
C         13.15617      -11.93329       -1.39827
H         13.73393      -12.16589       -0.49763
H         13.58851      -12.45955       -2.25576
C         15.31617      -18.26024       -0.53968
C          2.94222      -14.23364       -3.81992
C         12.22570      -18.38918       -0.24487
C          4.37246      -12.19640        3.10808
H          4.26958      -11.45585        3.89518
C         10.45230      -22.64908        0.61846
C         10.05236      -21.33327        0.43525
H          9.00673      -21.05471        0.48091
C          3.07627      -13.25447       -1.59909
H          2.57797      -12.98533       -0.67521
C          4.20643      -13.54777        3.41019
C          4.30826      -13.98475       -3.96572
H          4.80756      -14.26501       -4.88809
C         12.40305      -20.71973        0.12657
C         13.17391      -19.47379       -0.14820
C          2.14860      -14.91592       -4.90792
H          2.59788      -14.75243       -5.89020
H          1.11980      -14.54849       -4.94092
C          2.34048      -13.85274       -2.61674
H          1.27877      -14.02751       -2.47081
C          3.86018      -14.00749        4.80583
H          4.45384      -14.87865        5.09635
H          4.03791      -13.21837        5.53959
C         11.80136      -22.99071        0.55625
C         12.79306      -22.04744        0.31241
H         13.81829      -22.38424        0.27793
C         14.56475      -19.43832       -0.27692
N         16.09175      -21.50753       -0.06749
C         15.38795      -20.59088       -0.15783
H         -2.67998       -7.90057       -0.76301
H          8.39602       -2.76221        2.40234
H          2.10365      -15.99854       -4.74440
H         13.18056      -10.86028       -1.57949
H          7.69524       -4.46625       -7.22095
H          2.80538      -14.29480        4.87827

