%nprocshared=16
%mem=16GB
%chk=molec.chk
# ub3lyp/6-311g(d,p) geom=connectivity polar

IT-4F-cut

1 2
 C                  8.60113500   -0.62638500   -0.01799000
 H                  8.73024000   -1.70029400    0.01679800
 C                  9.76119500    0.10236800   -0.04189000
 C                 11.12822700   -0.46252900   -0.03224000
 C                  9.90087300    1.59586700   -0.03131700
 O                  9.02049600    2.43409100   -0.06807500
 C                 12.07091000    0.67468500    0.05268800
 C                 11.34463900    1.87563500    0.04354100
 C                 13.46744200    0.72206500    0.12970800
 H                 14.10296700   -0.15044900    0.14529600
 C                 14.07073400    1.96716200    0.19238500
 F                 15.39744500    2.05621500    0.26968900
 C                 11.94847000    3.12460100    0.10248100
 H                 11.36785200    4.03842200    0.09152300
 C                 13.32765300    3.15818200    0.17756200
 F                 13.98129200    4.31712200    0.23910700
 C                 11.49722700   -1.78594000   -0.11517200
 C                 12.85747700   -2.21529300   -0.10080200
 N                 13.94769700   -2.59902400   -0.08982500
 C                 10.58112700   -2.87255600   -0.23656000
 N                  9.86342300   -3.77395700   -0.33586800
 C                  7.21875300   -0.26020100   -0.02261600
 S                  6.08841100   -1.63131400    0.06318000
 C                  6.54488100    0.96275600   -0.09844100
 H                  7.07550500    1.90011400   -0.15930700
 C                  5.16460500    0.78772500   -0.08172200
 C                  4.73264100   -0.55903400    0.00475800
 S                  3.81733500    1.91742100   -0.14860500
 C                  3.34285300   -0.68352900    0.03019500
 C                  2.71882900    0.56826000   -0.04928700
 C                  1.30541200    0.43320500   -0.03436700
 C                  1.01605300   -0.96967200    0.03352300
 C                  2.31256800   -1.80598900    0.08237000
 C                 -0.28510600   -1.40542400    0.07153400
 H                 -0.52607200   -2.45976300    0.12847300
 C                 -1.30541300   -0.43318800    0.03462200
 C                  0.28510400    1.40544100   -0.07127700
 H                  0.52606900    2.45978000   -0.12822500
 C                 -1.01605400    0.96968900   -0.03325700
 C                 -2.31256500    1.80600800   -0.08210700
 C                 -2.71883100   -0.56824300    0.04951700
 C                 -3.34285400    0.68354700   -0.02997600
 S                 -3.81733800   -1.91740500    0.14880500
 C                 -4.73264300    0.55904800   -0.00460400
 S                 -6.08841600    1.63132200   -0.06308700
 C                 -5.16460800   -0.78771300    0.08185200
 C                 -6.54488400   -0.96274900    0.09849900
 H                 -7.07550700   -1.90011000    0.15933500
 C                 -7.21875600    0.26020400    0.02263400
 C                 -8.60113900    0.62638300    0.01792900
 H                 -8.73024500    1.70029100   -0.01685700
 C                 -9.76119900   -0.10237400    0.04175300
 C                -11.12823700    0.46251200    0.03203000
 C                 -9.90086700   -1.59587400    0.03115200
 O                 -9.02048500   -2.43409300    0.06790000
 C                -12.07090100   -0.67470500   -0.05303600
 C                -11.34462300   -1.87564900   -0.04387700
 C                -13.46742500   -0.72208800   -0.13019400
 H                -14.10295200    0.15042400   -0.14580300
 C                -14.07070300   -1.96718700   -0.19299200
 F                -15.39740600   -2.05624400   -0.27043100
 C                -11.94844000   -3.12461700   -0.10294000
 H                -11.36781700   -4.03843400   -0.09196900
 C                -13.32761500   -3.15820200   -0.17815800
 C                -11.49727000    1.78591200    0.11499700
 C                -12.85753100    2.21522800    0.10053500
 N                -13.94776500    2.59891600    0.08948300
 C                -10.58121200    2.87254800    0.23652000
 N                 -9.86355500    3.77397500    0.33593800
 C                 -2.51679400    2.69333600    1.16577400
 C                 -3.42978600    3.75420200    1.13309500
 H                 -3.92903100    4.01234000    0.20693600
 C                 -3.69445300    4.50331700    2.27433400
 H                 -4.40643500    5.31989100    2.21663900
 C                 -3.06107400    4.22486200    3.49042900
 C                 -2.15829600    3.15900600    3.52010100
 H                 -1.65574200    2.91066600    4.44900600
 C                 -1.89191400    2.40271200    2.38174600
 H                 -1.19232500    1.57872700    2.45436200
 C                 -2.33392900    2.59056000   -1.40958800
 C                 -2.90963200    2.05688400   -2.56452600
 H                 -3.41118800    1.09679900   -2.53222500
 C                 -2.84939400    2.74238000   -3.77618300
 H                 -3.31114600    2.30431100   -4.65468200
 C                 -2.21022800    3.97917400   -3.87992500
 C                 -1.62735400    4.50637200   -2.72124800
 H                 -1.12327200    5.46626100   -2.76642000
 C                 -1.68773600    3.82926400   -1.50908700
 H                 -1.24377000    4.28102900   -0.62981800
 C                  2.33396200   -2.59053100    1.40985800
 C                  1.68798400   -3.82935100    1.50930000
 H                  1.24417500   -4.28119400    0.62999200
 C                  1.62763000   -4.50647800    2.72145100
 H                  1.12371600   -5.46645800    2.76657800
 C                  2.21032000   -3.97918500    3.88017700
 C                  2.84928100   -2.74228000    3.77649000
 H                  3.31089100   -2.30413800    4.65502700
 C                  2.90949300   -2.05676700    2.56484100
 H                  3.41088700   -1.09659600    2.53258600
 C                  2.51677300   -2.69332900   -1.16550500
 C                  3.42990100   -3.75408000   -1.13290300
 H                  3.92928400   -4.01213400   -0.20679500
 C                  3.69453900   -4.50318200   -2.27415800
 H                  4.40663100   -5.31966500   -2.21652600
 C                  3.06099600   -4.22482600   -3.49019100
 C                  2.15808500   -3.15908100   -3.51978500
 H                  1.65540200   -2.91081700   -4.44864200
 C                  1.89173200   -2.40279900   -2.38141600
 H                  1.19203500   -1.57889900   -2.45397000
 C                 -3.32842600    5.06078900    4.71648200
 H                 -2.69601800    5.95498700    4.72398100
 H                 -3.12036600    4.50433000    5.63238400
 H                 -4.36689000    5.39725600    4.75006700
 C                 -2.17160500    4.73737100   -5.18287200
 H                 -2.94330300    5.51397600   -5.20416200
 H                 -2.34578600    4.07738600   -6.03460300
 H                 -1.20877100    5.23315200   -5.32697400
 C                  2.17173300   -4.73739700    5.18311500
 H                  2.94357600   -5.51385700    5.20446500
 H                  1.20898100   -5.23336100    5.32713500
 H                  2.34571900   -4.07738500    6.03486500
 C                  3.32832100   -5.06073900   -4.71625900
 H                  3.12013900   -4.50430500   -5.63214800
 H                  2.69599000   -5.95499200   -4.72370000
 H                  4.36681200   -5.39711600   -4.74992600
 F                -13.98124100   -4.31714300   -0.23982400

 1 2 1.0 3 2.0 22 1.5
 2
 3 4 1.0 5 1.0
 4 7 1.0 17 2.0
 5 6 2.0 8 1.0
 6
 7 8 1.5 9 1.5
 8 13 1.5
 9 10 1.0 11 2.0
 10
 11 12 1.0 15 1.5
 12
 13 14 1.0 15 2.0
 14
 15 16 1.0
 16
 17 18 1.5 20 1.5
 18 19 3.0
 19
 20 21 3.0
 21
 22 23 1.0 24 1.5
 23 27 1.0
 24 25 1.0 26 1.5
 25
 26 27 1.5 28 1.0
 27 29 1.5
 28 30 1.0
 29 30 1.5 33 1.0
 30 31 1.5
 31 32 1.5 37 1.5
 32 33 1.0 34 2.0
 33 90 1.0 100 1.0
 34 35 1.0 36 1.5
 35
 36 39 1.5 41 1.5
 37 38 1.0 39 2.0
 38
 39 40 1.0
 40 42 1.0 70 1.0 80 1.0
 41 42 1.5 43 1.0
 42 44 1.5
 43 46 1.0
 44 45 1.0 46 1.5
 45 49 1.0
 46 47 1.5
 47 48 1.0 49 1.5
 48
 49 50 1.5
 50 51 1.0 52 2.0
 51
 52 53 1.0 54 1.0
 53 56 1.0 65 2.0
 54 55 2.0 57 1.0
 55
 56 57 1.5 58 1.5
 57 62 1.5
 58 59 1.0 60 2.0
 59
 60 61 1.0 64 1.5
 61
 62 63 1.0 64 2.0
 63
 64 126 1.0
 65 66 1.5 68 1.5
 66 67 3.0
 67
 68 69 3.0
 69
 70 71 1.5 78 1.5
 71 72 1.0 73 1.5
 72
 73 74 1.0 75 1.5
 74
 75 76 1.5 110 1.0
 76 77 1.0 78 1.5
 77
 78 79 1.0
 79
 80 81 1.5 88 1.5
 81 82 1.0 83 1.5
 82
 83 84 1.0 85 1.5
 84
 85 86 1.5 114 1.0
 86 87 1.0 88 1.5
 87
 88 89 1.0
 89
 90 91 1.5 98 1.5
 91 92 1.0 93 1.5
 92
 93 94 1.0 95 1.5
 94
 95 96 1.5 118 1.0
 96 97 1.0 98 1.5
 97
 98 99 1.0
 99
 100 101 1.5 108 1.5
 101 102 1.0 103 1.5
 102
 103 104 1.0 105 1.5
 104
 105 106 1.5 122 1.0
 106 107 1.0 108 1.5
 107
 108 109 1.0
 109
 110 111 1.0 112 1.0 113 1.0
 111
 112
 113
 114 115 1.0 116 1.0 117 1.0
 115
 116
 117
 118 119 1.0 120 1.0 121 1.0
 119
 120
 121
 122 123 1.0 124 1.0 125 1.0
 123
 124
 125
 126

