%nprocshared=20
%mem=16GB
%chk=nN.chk
#P opt  cam-b3lyp/6-311G(d,p) nosymm 

TITLE

 0  1
S          1.43032       -7.40229       -1.17975
F          0.96464        4.81753       -3.19540
N         -5.43382       -1.46788       -1.61371
S          0.50216       -3.10598       -1.82902
F         -1.62324        5.49040       -3.09402
C          2.85187       -5.25889       -1.66815
H          3.12634       -4.23345       -1.87617
C          3.97012       -9.96604       -0.94606
H          2.98993      -10.39769       -0.78122
C          5.85824       -4.70861       -3.40664
H          5.77555       -3.97059       -2.61711
O         -1.27224       -6.49400       -1.11381
C          5.80575       -6.98202       -4.15705
H          5.66623       -8.03958       -3.97202
C          5.27187       -6.49407       -1.68584
O          0.68859       -0.44673       -2.29022
C          5.47330       -5.39394        0.62290
H          4.41770       -5.57683        0.78280
C          4.11522       -8.59723       -1.20860
C         -1.86136       -4.12763       -1.46433
H         -2.93477       -4.20615       -1.36386
C          5.11198      -10.74494       -0.90505
C          0.36922       -4.82133       -1.53010
C          3.75777       -6.31988       -1.55625
C          5.68586       -6.06749       -3.10957
C          3.14553       -7.53228       -1.29868
C          6.06665       -5.75706       -0.58874
C         -0.97489       -5.19657       -1.35694
C          1.52830       -5.65477       -1.48643
C         -1.24353       -2.89477       -1.72191
C         -0.53687        1.60859       -2.53456
C         -2.02001       -1.72289       -1.85467
H         -3.06959       -1.95545       -1.72974
C          6.14725       -4.28757       -4.69873
H          6.27390       -3.22729       -4.89451
C         -0.37232        0.15541       -2.30439
C         -2.64656       -6.84269       -0.94746
H         -3.22037       -6.61600       -1.85133
H         -3.08237       -6.32024       -0.09023
C         -4.80243       -0.52127       -1.82513
C          7.58482       -4.54867        1.48420
C         -1.72637       -0.39604       -2.10077
C          6.09782       -6.55467       -5.45203
H          6.18467       -7.29207       -6.24369
C          0.06167        3.85753       -2.96020
C          0.45715        2.54461       -2.77318
H          1.50258        2.26511       -2.81255
C          7.43595       -5.51039       -0.74398
H          7.92790       -5.76935       -1.67415
C          6.27693       -5.20361       -5.74918
C          6.21996       -4.80035        1.63795
H          5.72752       -4.52849        2.56627
C         -1.89849        1.93971       -2.47761
C         -2.68190        0.70505       -2.20629
C          8.38544       -3.87419        2.57129
H          7.94393       -4.04502        3.55557
H          9.41494       -4.23965        2.59338
C          8.17805       -4.91957        0.27341
H          9.23795       -4.74103        0.12081
C          6.61637       -4.74113       -7.14509
H          6.03345       -3.85953       -7.42479
H          6.42106       -5.52283       -7.88192
C         -1.29161        4.20679       -2.90678
C         -2.28517        3.26937       -2.66796
H         -3.30923        3.61030       -2.64030
C         -4.05834        0.66583       -2.08586
N         -5.58826        2.73342       -2.30551
C         -4.88629        1.81876       -2.21045
S          9.07026      -11.35855       -1.16287
F          9.53619      -23.57856        0.85222
N         15.93417      -17.29241       -0.72818
S          9.99843      -15.65485       -0.51362
F         12.12411      -24.25130        0.75097
C          7.64872      -13.50195       -0.67447
H          7.37425      -14.52739       -0.46645
C          6.53046       -8.79481       -1.39657
H          7.51065       -8.36315       -1.56141
C          4.64198      -14.05225        1.06385
H          4.72445      -14.79022        0.27423
O         11.77283      -12.26681       -1.22874
C          4.69505      -11.77894        1.81448
H          4.83481      -10.72139        1.62955
C          5.22872      -12.26678       -0.65681
O          9.81206      -18.31421       -0.05239
C          5.02709      -13.36646       -2.96576
H          6.08259      -13.18317       -3.12589
C          6.38535      -10.16362       -1.13404
C         12.36196      -14.63317       -0.87819
H         13.43537      -14.55464       -0.97862
C          5.38859       -8.01591       -1.43758
C         10.13137      -13.93950       -0.81249
C          6.74281      -12.44097       -0.78638
C          4.81470      -12.69339        0.76691
C          7.35505      -11.22857       -1.04396
C          4.43393      -13.00380       -1.75389
C         11.47549      -13.56424       -0.98560
C          8.97228      -13.10606       -0.85618
C         11.74414      -15.86604       -0.62065
C         11.03760      -20.36949        0.19179
C         12.52063      -17.03791       -0.48787
H         13.57022      -16.80533       -0.61275
C          4.35291      -14.47336        2.35590
H          4.22600      -15.53363        2.55157
C         10.87299      -18.91629       -0.03824
C         13.14717      -11.91804       -1.39468
H         13.72076      -12.14483       -0.49068
H         13.58324      -12.44036       -2.25186
C         15.30303      -18.23928       -0.51717
C          2.91565      -14.21230       -3.82669
C         12.22703      -18.36478       -0.24179
C          4.40292      -12.20635        3.10943
H          4.31626      -11.46901        3.90117
C         10.43913      -22.61851        0.61718
C         10.04360      -21.30558        0.43025
H          8.99816      -21.02614        0.46958
C          3.06475      -13.25102       -1.59834
H          2.57297      -12.99246       -0.66797
C          4.22349      -13.55739        3.40645
C          4.28038      -13.96009       -3.98075
H          4.77267      -14.23158       -4.90925
C         12.39923      -20.70054        0.13490
C         13.18260      -19.46581       -0.13625
C          2.11496      -14.88681       -4.91371
H          2.55672      -14.71649       -5.89796
H          1.08561      -14.52091       -4.93613
C          2.32260      -13.84187       -2.61566
H          1.26281      -14.02083       -2.46281
C          3.88400      -14.01994        4.80232
H          4.46685      -14.90160        5.08197
H          4.07934      -13.23830        5.53920
C         11.79244      -22.96769        0.56382
C         12.78596      -22.03020        0.32516
H         13.81005      -22.37108        0.29754
C         14.55904      -19.42647       -0.25657
N         16.08915      -21.49393       -0.03697
C         15.38710      -20.57934       -0.13200
H         -2.66138       -7.91519       -0.76620
H          8.42726       -2.79073        2.41440
H          2.07264      -15.97019       -4.75646
H         13.16201      -10.84552       -1.57580
H          7.67434       -4.46877       -7.22425
H          2.82600      -14.29223        4.88144


