%nprocshared=20
%mem=16GB
%chk=cC.chk
#P opt  b3lyp/6-311G(d,p) nosymm 

TITLE

 1  2
S          1.74502       -6.10801       18.16376
S          1.32507       -1.82845       15.07643
S          1.62550        2.35635       15.75056
S          2.05743       -4.64880       23.24302
S          1.60630       -0.95904       25.30208
N          1.91509       -5.49750       19.69190
N          1.53581       -4.68852       17.34030
O          1.71177        5.00206       15.30410
N          1.68021       -0.09076       18.51551
C          1.81261       -4.18131       19.58891
N          1.59900       -1.16830       21.61543
O          1.42981        0.83614       27.29044
C          1.59413       -3.71645       18.23759
C          1.83932       -3.23344       20.65969
C          1.45224       -1.56052       16.79613
F          1.09782        4.33586       31.31261
C          1.55079        0.64845       16.02574
F          1.87007       10.24982       14.31871
C          1.52218       -2.31070       17.98379
C          1.47290        0.36613       28.41542
C          1.42826       -0.07660       14.82839
C          1.68236       -1.84304       20.40054
C          1.63391       -1.37525       19.05034
C          1.73541       -2.12584       24.02923
F          1.76426       10.27333       11.64583
C          1.89877       -3.37811       22.05748
C          1.58957        4.44726       12.94634
C          1.50984        3.06797       12.97025
H          1.43060        2.60110       11.99822
C          1.55575       -0.21002       17.14162
C          1.74489       -2.10843       22.62149
C          1.67670        5.32848       14.12913
C          1.89846       -3.43176       24.52159
N          1.45871        2.48361        9.57994
F          1.24869        2.70356       33.42663
C          1.39995        0.71095       13.67646
C          1.50379        2.08976       13.98781
C          1.61150       -1.05399       28.79912
C          1.58813        5.29760       11.75469
C          1.49762        3.56930        9.97926
C          1.60380       -1.12464       30.26132
C          1.73776       -2.11819       27.92685
C          1.68525       -2.24068       31.07173
C          1.76152       -2.25528       26.52222
C          1.71093        6.71788       13.62267
C          1.65616        6.70742       12.22173
C          1.67403        7.92230       11.53002
H          1.63463        8.00593       10.45438
C          1.74604        9.09103       12.27228
C          1.80114        9.08136       13.67038
C          1.78406        7.88574       14.36623
H          1.82603        7.86862       15.44811
C          1.91608       -3.52610       25.91398
C          1.47619        0.26758       30.76707
C          1.39697        1.14099       29.67317
C          1.26881        2.51446       29.81201
C          1.22028        3.02071       31.09862
C          1.29903        2.16485       32.20276
C          1.42622        0.79148       32.06234
C          1.55197        5.85437        9.34885
N          1.88009       -4.67256       30.22766
C          1.79274       -3.57544       30.58597
N          1.55477        6.58274        8.45028
C          1.66495       -2.17558       32.49540
C          2.08724       -4.82066       26.65784
C          1.54585        4.92103       10.42602
H          1.84755       -3.08345       28.40151
H          1.20902        3.16925       28.95166
H          1.48119        0.19265       32.95896
C          2.20591        1.12359       19.13788
C          1.02324        0.15101       21.87300
N          1.65229       -2.16059       33.65194
C          1.26507        0.14980       12.28886
H          2.10511       -5.66195       25.96408
H          1.27909       -4.99493       27.37158
H          3.02230       -4.83686       27.22440
H          1.40992        1.79776       19.46000
H          2.83108        1.64533       18.41294
H          2.83107        0.86112       19.98877
H          0.38936        0.08904       22.75785
H          0.39698        0.45011       21.03511
H          1.79098        0.90739       22.04716
H          1.29821       -0.94008       12.31134
H          2.06203        0.49333       11.62592
H          0.31781        0.44423       11.82862


