%mem=16GB
#P  polar  b3lyp/6-311G(d,p) nosymm 

ITIC-cut

1 2
C         -8.62281        0.20225       -0.03407
H         -8.80623        1.26868       -0.01414
C         -9.74348       -0.58523       -0.04892
C        -11.13710       -0.09002       -0.05381
C         -9.81032       -2.08503        0.01044
O         -8.88665       -2.87622       -0.01947
C        -12.02173       -1.26629        0.10576
C        -11.23695       -2.43196        0.12821
C        -13.41125       -1.38192        0.22159
H        -14.06275       -0.52186        0.21724
C        -13.96469       -2.65519        0.35030
H        -15.04011       -2.75105        0.44218
C        -11.78588       -3.70082        0.25145
H        -11.14081       -4.57107        0.25988
C        -13.16887       -3.80646        0.36307
H        -13.63474       -4.77961        0.46187
C        -11.56790        1.20683       -0.22087
C        -12.94548        1.57811       -0.21993
N        -14.04860        1.92323       -0.22296
C        -10.70363        2.32217       -0.43187
N        -10.02961        3.24606       -0.60457
C         -7.22359       -0.09413       -0.03098
S         -6.16204        1.33110        0.04948
C         -6.49062       -1.28266       -0.10132
H         -6.97598       -2.24451       -0.15921
C         -5.12051       -1.04026       -0.08291
C         -4.75484        0.32625       -0.00208
S         -3.71955       -2.10293       -0.14362
C         -3.37284        0.51844        0.02386
C         -2.68802       -0.70130       -0.04942
C         -1.28280       -0.49724       -0.03402
C         -1.06236        0.91811        0.02805
C         -2.39827        1.69009        0.07090
C          0.21568        1.41793        0.06569
H          0.40407        2.48317        0.11823
C          1.28283        0.49724        0.03419
C         -0.21566       -1.41793       -0.06552
H         -0.40405       -2.48317       -0.11807
C          1.06238       -0.91811       -0.02788
C          2.39829       -1.69009       -0.07073
C          2.68804        0.70129        0.04957
C          3.37286       -0.51844       -0.02372
S          3.71957        2.10293        0.14373
C          4.75486       -0.32625        0.00219
S          6.16206       -1.33110       -0.04940
C          5.12053        1.04026        0.08300
C          6.49064        1.28266        0.10137
H          6.97601        2.24451        0.15925
C          7.22361        0.09414        0.03103
C          8.62284       -0.20225        0.03408
H          8.80625       -1.26868        0.01414
C          9.74350        0.58523        0.04891
C         11.13713        0.09002        0.05376
C          9.81034        2.08503       -0.01042
O          8.88668        2.87622        0.01951
C         12.02175        1.26629       -0.10577
C         11.23697        2.43196       -0.12818
C         13.41127        1.38192       -0.22160
H         14.06278        0.52186       -0.21727
C         13.96472        2.65519       -0.35027
H         15.04013        2.75106       -0.44214
C         11.78590        3.70082       -0.25139
H         11.14083        4.57107       -0.25979
C         13.16890        3.80647       -0.36301
H         13.63477        4.77962       -0.46178
C         11.56792       -1.20685        0.22075
C         12.94549       -1.57814        0.21978
N         14.04862       -1.92327        0.22278
C         10.70364       -2.32219        0.43169
N         10.02962       -3.24609        0.60435
C          2.64304       -2.55861        1.18304
C          3.60635       -3.57478        1.15933
H          4.12060       -3.81435        0.23634
C          3.90377       -4.30293        2.30576
H          4.65496       -5.08412        2.25488
C          3.25484       -4.04741        3.51892
C          2.30240       -3.02589        3.53984
H          1.78612       -2.79587        4.46592
C          2.00271       -2.29047        2.39579
H          1.26417       -1.50062        2.46180
C          2.46071       -2.47973       -1.39397
C          3.00466       -1.92003       -2.55207
H          3.44968       -0.93233       -2.52466
C          2.98431       -2.61400       -3.76007
H          3.42030       -2.15438       -4.64075
C          2.41695       -3.88591       -3.85724
C          1.86383       -4.43880       -2.69610
H          1.41460       -5.42577       -2.73638
C          1.88503       -3.75309       -1.48732
H          1.46608       -4.22450       -0.60614
C         -2.46071        2.47971        1.39416
C         -1.88499        3.75306        1.48753
H         -1.46601        4.22446        0.60636
C         -1.86383        4.43876        2.69630
H         -1.41458        5.42573        2.73660
C         -2.41700        3.88588        3.85743
C         -2.98441        2.61400        3.76023
H         -3.42047        2.15441        4.64088
C         -3.00472        1.92003        2.55221
H         -3.44979        0.93235        2.52478
C         -2.64301        2.55864       -1.18285
C         -3.60629        3.57484       -1.15910
H         -4.12051        3.81441       -0.23610
C         -3.90370        4.30303       -2.30551
H         -4.65486        5.08425       -2.25460
C         -3.25479        4.04751       -3.51870
C         -2.30239        3.02595       -3.53965
H         -1.78613        2.79594       -4.46573
C         -2.00271        2.29050       -2.39561
H         -1.26419        1.50063       -2.46165
C          3.56109       -4.86184        4.75040
H          3.02504       -5.81661        4.72961
H          3.26388       -4.33731        5.66034
H          4.62702       -5.09005        4.82112
C          2.42301       -4.65220       -5.15602
H          3.24111       -5.37987       -5.17489
H          2.55479       -3.98733       -6.01159
H          1.49229       -5.20706       -5.29568
C         -2.42293        4.65218        5.15621
H         -3.23869        5.38249        5.17363
H         -1.49067        5.20405        5.29751
H         -2.55831        3.98773        6.01152
C         -3.56105        4.86196       -4.75014
H         -3.26336        4.33768       -5.66008
H         -3.02544        5.81697       -4.72908
H         -4.62707        5.08970       -4.82113


