%nprocshared=20
%mem=16GB
%chk=nN.chk
#P opt  cam-b3lyp/6-311G(d,p) nosymm 

TITLE

 0  1
C         -8.64973        0.18464       -0.00036
H         -8.83356        1.25134        0.02492
C         -9.78348       -0.60017       -0.00574
C        -11.16511       -0.09757        0.01085
C         -9.84955       -2.08654        0.01841
O         -8.93467       -2.89233       -0.01146
C        -12.06492       -1.27663        0.10213
C        -11.28409       -2.44179        0.09758
C        -13.45614       -1.39451        0.18334
H        -14.10641       -0.53367        0.19450
C        -14.01502       -2.67120        0.25479
F        -15.09270       -2.76741        0.31933
C        -11.83504       -3.71203        0.16502
H        -11.18802       -4.58118        0.15598
C        -13.22129       -3.82174        0.24471
F        -13.68872       -4.79805        0.30007
C        -11.60327        1.20948       -0.06742
C        -12.98096        1.57742       -0.04123
N        -14.08415        1.92461       -0.02229
C        -10.74892        2.34397       -0.19526
N        -10.09432        3.29235       -0.30098
C         -7.26145       -0.10835       -0.01111
S         -6.18292        1.31762        0.04788
C         -6.52265       -1.29149       -0.07210
H         -7.00481       -2.25567       -0.11577
C         -5.14985       -1.04869       -0.06570
C         -4.78176        0.31174       -0.00221
S         -3.74307       -2.10456       -0.11845
C         -3.38605        0.50165        0.01888
C         -2.71216       -0.70200       -0.04055
C         -1.28289       -0.49846       -0.03027
C         -1.06735        0.90129        0.02024
C         -2.40620        1.67338        0.05443
C          0.21864        1.40864        0.05403
H          0.40075        2.47572        0.09751
C          1.28286        0.49853        0.02997
C         -0.21867       -1.40858       -0.05433
H         -0.40078       -2.47566       -0.09781
C          1.06732       -0.90122       -0.02053
C          2.40616       -1.67333       -0.05463
C          2.71214        0.70206        0.04025
C          3.38602       -0.50160       -0.01915
S          3.74306        2.10461        0.11813
C          4.78172       -0.31171        0.00193
S          6.18287       -1.31761       -0.04812
C          5.14984        1.04873        0.06540
C          6.52264        1.29150        0.07183
H          7.00481        2.25567        0.11548
C          7.26143        0.10835        0.01090
C          8.64970       -0.18467        0.00018
H          8.83350       -1.25138       -0.02517
C          9.78347        0.60011        0.00569
C         11.16509        0.09747       -0.01085
C          9.84958        2.08648       -0.01815
O          8.93472        2.89229        0.01167
C         12.06495        1.27653       -0.10155
C         11.28415        2.44171       -0.09688
C         13.45619        1.39440       -0.18237
H         14.10645        0.53355       -0.19359
C         14.01513        2.67109       -0.25334
F         15.09283        2.76730       -0.31757
C         11.83515        3.71195       -0.16385
H         11.18815        4.58112       -0.15475
C         13.22142        3.82165       -0.24316
F         13.68888        4.79796       -0.29815
C         11.60321       -1.20963        0.06695
C         12.98089       -1.57759        0.04091
N         14.08407       -1.92482        0.02208
C         10.74880       -2.34417        0.19407
N         10.09419       -3.29260        0.29919
C          2.64122       -2.54287        1.19982
C          3.62832       -3.53617        1.19242
H          4.17208       -3.75105        0.28024
C          3.91586       -4.26995        2.33810
H          4.68930       -5.03029        2.29856
C          3.23094       -4.04317        3.53613
C          2.25280       -3.04689        3.54239
H          1.70680       -2.83974        4.45723
C          1.96226       -2.30753        2.39788
H          1.20081       -1.53930        2.44868
C          2.47130       -2.48002       -1.36719
C          3.04464       -1.94912       -2.52443
H          3.51092       -0.97174       -2.49816
C          3.02435       -2.65740       -3.72445
H          3.48176       -2.21781       -4.60496
C          2.43200       -3.91782       -3.81430
C          1.85442       -4.44559       -2.65427
H          1.38418       -5.42339       -2.68828
C          1.87440       -3.74410       -1.45436
H          1.43297       -4.19399       -0.57288
C         -2.47131        2.47991        1.36712
C         -1.87434        3.74399        1.45442
H         -1.43294        4.19395        0.57296
C         -1.85433        4.44533        2.65437
H         -1.38409        5.42313        2.68847
C         -2.43191        3.91742        3.81439
C         -3.02432        2.65709        3.72439
H         -3.48177        2.21744        4.60485
C         -3.04465        1.94892        2.52427
H         -3.51102        0.97158        2.49791
C         -2.64128        2.54308       -1.19988
C         -3.62838        3.53638       -1.19232
H         -4.17212        3.75114       -0.28009
C         -3.91594        4.27034       -2.33788
H         -4.68939        5.03066       -2.29822
C         -3.23103        4.04373       -3.53596
C         -2.25288        3.04746       -3.54237
H         -1.70688        2.84048       -4.45725
C         -1.96233        2.30793       -2.39799
H         -1.20087        1.53972       -2.44890
C          3.52666       -4.86250        4.76834
H          3.01297       -5.82931        4.73054
H          3.19763       -4.35100        5.67529
H          4.59604       -5.06658        4.86276
C          2.43800       -4.69932       -5.10518
H          3.24379       -5.44128       -5.11102
H          2.58808       -4.04494       -5.96636
H          1.49850       -5.23895       -5.24862
C         -2.43752        4.69879        5.10535
H         -3.23877        5.44565        5.10861
H         -1.49524        5.23272        5.25199
H         -2.59436        4.04521        5.96591
C         -3.52679        4.86323       -4.76805
H         -3.19683        4.35229       -5.67499
H         -3.01396        5.83047       -4.72965
H         -4.59630        5.06641       -4.86299


