%nprocshared=20
%mem=16GB
%chk=nN.chk
#P opt  cam-b3lyp/6-311G(d,p) nosymm 

TITLE

0  1
S          9.71800       15.17600        6.84400
S          8.95100       10.90800        6.36700
O         11.61100       11.82400        6.85000
O          9.36500       17.81500        6.57300
C          8.80500       12.61700        6.65600
C          9.91100       13.49800        6.81000
C          4.66100       12.01800        8.16600
C          4.36300       11.13600        9.10800
H          4.32500       10.02500        8.85700
C         11.26500       13.13500        6.93100
C         11.41100       15.42200        7.04400
C          7.44700       12.99400        6.75900
H          7.17200       14.07800        6.97800
C         10.33800       18.47400        6.88900
C          7.24100       10.73500        6.38200
C          6.58100       11.91500        6.56700
C         12.10000       16.66900        7.30200
H         13.20800       16.66400        7.56800
C          4.74200       12.53600        4.38400
H          5.81300       12.21600        4.15700
C          5.07900       11.65500        6.72900
C         11.70000       17.93100        7.29900
C         12.09600       14.23100        7.09600
H         13.21500       14.07900        7.25200
C          4.24600       12.38100        5.61100
C          4.68400       13.37400        8.53500
H          4.94600       14.17100        7.76300
C          4.08400       11.47500       10.42000
H          3.85800       10.65900       11.18300
C          5.01300       10.16700        6.42900
C          6.51200        8.27500        5.96800
C         12.48700       19.10100        7.69600
C         10.41700       19.91900        6.93000
C          6.32300        9.62800        6.21000
C         13.76800       19.04500        8.35000
C         14.51200       17.90600        8.56100
C         11.66000       20.29900        7.37400
C          3.96900       13.07800        3.39100
H          4.38900       13.18500        2.33700
C          2.21400       13.33900        4.85700
H          1.13600       13.65000        5.05900
C         11.01500       22.54400        7.11100
H         11.12700       23.67500        7.20600
C         13.00800       11.47100        6.91100
H         13.48400       11.62800        5.88700
H         13.11100       10.37700        7.21500
C          2.99300       12.80300        5.88800
H          2.58500       12.72100        6.95000
C          2.72000       13.49100        3.63500
C         12.12700       21.67000        7.45700
H         13.20600       21.88800        7.75500
C          9.81900       22.22000        6.67700
H          9.09200       23.03400        6.35000
N         14.77800       21.23000        9.35500
C         14.24500       20.33500        8.86200
C          9.39700       20.81700        6.60300
H          8.36400       20.42800        6.31700
N         15.14900       16.95500        8.79400
C          4.08800       12.83500       10.77500
C          4.39000       13.70600        9.81600
H          4.39100       14.80000       10.13600
H         13.53300       12.13000        7.67900
C          2.10300       13.96500        2.80200
C          3.84000       13.14600       11.84300
H          1.40500       13.18300        2.35400
H          2.80000       14.36000        1.99100
H          1.48800       14.82500        3.22600
H          3.34400       12.27500       12.38700
H          3.12900       14.03700       11.82500
H          4.79900       13.43700       12.38700
H          7.56800        7.85500        5.87600
S          0.69500        2.44500        5.42800
S          1.46200        6.71300        5.90400
O         -1.19700        5.79700        5.42100
O          1.04800       -0.19400        5.69800
C          1.60800        5.00400        5.61500
C          0.50200        4.12300        5.46100
C          5.75200        5.60300        4.10500
C          6.05000        6.48500        3.16400
H          6.08800        7.59600        3.41500
C         -0.85200        4.48600        5.34100
C         -0.99800        2.19900        5.22700
C          2.96600        4.62700        5.51200
H          3.24100        3.54300        5.29300
C          0.07500       -0.85300        5.38200
C          3.17200        6.88600        5.89000
C          3.83200        5.70600        5.70400
C         -1.68700        0.95200        4.96900
H         -2.79500        0.95700        4.70300
C          5.67100        5.08500        7.88700
H          4.60000        5.40500        8.11400
C          5.33400        5.96600        5.54200
C         -1.28700       -0.31000        4.97200
C         -1.68300        3.39000        5.17600
H         -2.80200        3.54200        5.01900
C          6.16700        5.24000        6.66000
C          5.72900        4.24700        3.73600
H          5.46700        3.45000        4.50900
C          6.32900        6.14600        1.85100
H          6.55500        6.96200        1.08800
C          5.40000        7.45400        5.84200
C          3.90100        9.34600        6.30300
C         -2.07400       -1.48000        4.57500
C         -0.00400       -2.29800        5.34100
C          4.09000        7.99300        6.06100
C         -3.35500       -1.42400        3.92100
C         -4.09900       -0.28500        3.71000
C         -1.24700       -2.67800        4.89700
C          6.44400        4.54300        8.88000
H          6.02400        4.43600        9.93500
C          8.19900        4.28200        7.41400
H          9.27700        3.97100        7.21200
C         -0.60200       -4.92300        5.16000
H         -0.71400       -6.05400        5.06500
C         -2.59500        6.15000        5.36000
H         -3.07100        5.99300        6.38400
H         -2.69800        7.24400        5.05600
C          7.42000        4.81800        6.38300
H          7.82800        4.90000        5.32200
C          7.69300        4.13000        8.63600
C         -1.71400       -4.04900        4.81400
H         -2.79300       -4.26700        4.51600
C          0.59400       -4.59900        5.59400
H          1.32100       -5.41300        5.92100
N         -4.36500       -3.60900        2.91700
C         -3.83200       -2.71400        3.40900
C          1.01600       -3.19600        5.66900
H          2.04900       -2.80700        5.95500
N         -4.73600        0.66600        3.47700
C          6.32500        4.78600        1.49600
C          6.02300        3.91500        2.45500
H          6.02200        2.82100        2.13500
H         -3.12000        5.49100        4.59200
C          8.31000        3.65600        9.47000
C          6.57300        4.47500        0.42800
H          9.00800        4.43800        9.91700
H          7.61300        3.26100       10.28100
H          8.92500        2.79600        9.04500
H          7.06900        5.34600       -0.11600
H          7.28400        3.58400        0.44700
H          5.61400        4.18400       -0.11600
H          2.84500        9.76600        6.39500


