%nprocshared=16
%mem=16GB
%chk=molec.chk
# opt b3lyp/6-311g(d,p) geom=connectivity

IT-4F-cut

1 2
 C                 -8.63689100    0.62877000    0.00996000
 H                 -8.77428700    1.70418600    0.02372600
 C                 -9.80777400   -0.10628900    0.00924900
 C                -11.16534700    0.46148200    0.02024400
 C                 -9.94405600   -1.58700100    0.01829800
 O                 -9.06955800   -2.44626400    0.00409000
 C                -12.12216400   -0.67440800    0.05749600
 C                -11.39515000   -1.87540700    0.05332500
 C                -13.52229500   -0.72304100    0.09163300
 H                -14.15749600    0.15169100    0.09811800
 C                -14.12686500   -1.97319600    0.11985700
 F                -15.46151600   -2.06647700    0.15404300
 C                -11.99777200   -3.12687900    0.08029100
 H                -11.41065400   -4.03838500    0.07557400
 C                -13.38291600   -3.16254900    0.11403600
 F                -14.04100200   -4.32705100    0.14219300
 C                -11.54464800    1.79198900   -0.00757600
 C                -12.90968500    2.21585800    0.00882200
 N                -14.00885100    2.60181900    0.02168300
 C                -10.63897600    2.89635900   -0.06084800
 N                 -9.93987400    3.82777900   -0.10540900
 C                 -7.26348000    0.26782900    0.00066900
 S                 -6.11141100    1.63740700    0.02946800
 C                 -6.58768900   -0.95694300   -0.03557300
 H                 -7.12376500   -1.89548500   -0.05829900
 C                 -5.20199300   -0.78646400   -0.03650300
 C                 -4.76316900    0.55711600   -0.00124800
 S                 -3.84997600   -1.91505500   -0.06899900
 C                 -3.35844400    0.67667600    0.01343900
 C                 -2.74668800   -0.56458700   -0.02252800
 C                 -1.30843600   -0.43432800   -0.01869800
 C                 -1.02184600    0.95674000   -0.00021300
 C                 -2.31921300    1.79828300    0.01688200
 C                  0.29068200    1.39956100    0.02242700
 H                  0.52649500    2.45860000    0.04571900
 C                  1.30843300    0.43434000    0.01874400
 C                 -0.29068500   -1.39954900   -0.02237800
 H                 -0.52649800   -2.45858900   -0.04566800
 C                  1.02184200   -0.95672700    0.00026400
 C                  2.31920800   -1.79827300   -0.01681400
 C                  2.74668500    0.56459800    0.02256900
 C                  3.35843900   -0.67666700   -0.01339100
 S                  3.84997900    1.91506400    0.06902100
 C                  4.76316400   -0.55711100    0.00127700
 S                  6.11140000   -1.63740500   -0.02946100
 C                  5.20199300    0.78646900    0.03651100
 C                  6.58768900    0.95694400    0.03554600
 H                  7.12377100    1.89548200    0.05825600
 C                  7.26347600   -0.26783100   -0.00070700
 C                  8.63688400   -0.62877900   -0.01003000
 H                  8.77427500   -1.70419500   -0.02380000
 C                  9.80777400    0.10627500   -0.00935100
 C                 11.16534200   -0.46149900   -0.02038400
 C                  9.94406100    1.58698800   -0.01837000
 O                  9.06956500    2.44625400   -0.00414700
 C                 12.12216400    0.67438900   -0.05759100
 C                 11.39515600    1.87539000   -0.05338500
 C                 13.52229500    0.72301400   -0.09170800
 H                 14.15749300   -0.15172100   -0.09821700
 C                 14.12687100    1.97316700   -0.11987600
 F                 15.46152400    2.06644100   -0.15403700
 C                 11.99778400    3.12686000   -0.08029400
 H                 11.41067000    4.03836800   -0.07555100
 C                 13.38293100    3.16252500   -0.11402000
 C                 11.54464500   -1.79200700    0.00734700
 C                 12.90968100   -2.21587300   -0.00909500
 N                 14.00884700   -2.60183500   -0.02199500
 C                 10.63897100   -2.89638000    0.06055500
 N                  9.93986300   -3.82779900    0.10506400
 C                  2.51554200   -2.64663000    1.25993900
 C                  3.45826300   -3.68520900    1.27516500
 H                  3.98747700   -3.94799000    0.36482900
 C                  3.71779100   -4.40202200    2.44133900
 H                  4.45634600   -5.19929500    2.41978300
 C                  3.04715700   -4.11329100    3.63643600
 C                  2.11221900   -3.07234500    3.61909800
 H                  1.57829700   -2.81788700    4.53131400
 C                  1.85039200   -2.34950500    2.45529300
 H                  1.12284100   -1.54581600    2.48668100
 C                  2.33791600   -2.64616200   -1.30546800
 C                  2.92033000   -2.17368900   -2.48664900
 H                  3.42688800   -1.21426000   -2.49494200
 C                  2.85719900   -2.91786300   -3.66533100
 H                  3.32328400   -2.52488300   -4.56532200
 C                  2.21003500   -4.15682300   -3.71016100
 C                  1.62108700   -4.62394700   -2.52749100
 H                  1.10784800   -5.58244200   -2.52765400
 C                  1.68415700   -3.88688500   -1.34772400
 H                  1.23218200   -4.28943000   -0.44669700
 C                 -2.33792200    2.64614400    1.30555400
 C                 -1.68410700    3.88683700    1.34785200
 H                 -1.23208500    4.28937700    0.44684700
 C                 -1.62103800    4.62387300    2.52763400
 H                 -1.10775200    5.58234300    2.52783200
 C                 -2.21004700    4.15675600    3.71027700
 C                 -2.85727300    2.91783100    3.66540300
 H                 -3.32341200    2.52486300    4.56537100
 C                 -2.92040400    2.17368200    2.48670500
 H                 -3.42701100    1.21427900    2.49496300
 C                 -2.51554900    2.64667000   -1.25984900
 C                 -3.45823100    3.68528100   -1.27503800
 H                 -3.98742100    3.94806700   -0.36469000
 C                 -3.71774700    4.40213000   -2.44119700
 H                 -4.45627300    5.19942800   -2.41961300
 C                 -3.04714300    4.11339800   -3.63630700
 C                 -2.11225300    3.07240400   -3.61900800
 H                 -1.57836900    2.81793400   -4.53124300
 C                 -1.85043700    2.34953400   -2.45522500
 H                 -1.12292600    1.54580900   -2.48663700
 C                  3.30700000   -4.91336100    4.89008800
 H                  2.66924400   -5.80522100    4.93093300
 H                  3.10178200   -4.32556500    5.78947800
 H                  4.34505800   -5.25552400    4.93750200
 C                  2.17154100   -4.97764300   -4.97666700
 H                  2.97201900   -5.72770100   -4.98639900
 H                  2.30112600   -4.35112400   -5.86366300
 H                  1.22378500   -5.51563400   -5.07638300
 C                 -2.17155600    4.97755500    4.97679600
 H                 -2.97196700    5.72768400    4.98649000
 H                 -1.22375700    5.51545900    5.07657800
 H                 -2.30124700    4.35103500    5.86377600
 C                 -3.30693800    4.91352300   -4.88993200
 H                 -3.10224400    4.32558200   -5.78934700
 H                 -2.66875400    5.80507100   -4.93100100
 H                 -4.34484100    5.25618600   -4.93708100
 F                 14.04102200    4.32702100   -0.14212500

 1 2 1.0 3 2.0 22 1.5
 2
 3 4 1.0 5 1.0
 4 7 1.0 17 2.0
 5 6 2.0 8 1.0
 6
 7 8 1.5 9 1.5
 8 13 1.5
 9 10 1.0 11 1.5
 10
 11 12 1.0 15 1.5
 12
 13 14 1.0 15 1.5
 14
 15 16 1.0
 16
 17 18 1.5 20 1.5
 18 19 3.0
 19
 20 21 3.0
 21
 22 23 1.0 24 1.5
 23 27 1.0
 24 25 1.0 26 1.5
 25
 26 27 1.5 28 1.0
 27 29 1.5
 28 30 1.0
 29 30 2.0 33 1.0
 30 31 1.5
 31 32 1.5 37 1.5
 32 33 1.0 34 2.0
 33 90 1.0 100 1.0
 34 35 1.0 36 1.5
 35
 36 39 1.5 41 1.5
 37 38 1.0 39 2.0
 38
 39 40 1.0
 40 42 1.0 70 1.0 80 1.0
 41 42 2.0 43 1.0
 42 44 1.5
 43 46 1.0
 44 45 1.0 46 1.5
 45 49 1.0
 46 47 1.5
 47 48 1.0 49 1.5
 48
 49 50 1.5
 50 51 1.0 52 2.0
 51
 52 53 1.0 54 1.0
 53 56 1.0 65 2.0
 54 55 2.0 57 1.0
 55
 56 57 1.5 58 1.5
 57 62 1.5
 58 59 1.0 60 1.5
 59
 60 61 1.0 64 1.5
 61
 62 63 1.0 64 1.5
 63
 64 126 1.0
 65 66 1.5 68 1.5
 66 67 3.0
 67
 68 69 3.0
 69
 70 71 1.5 78 1.5
 71 72 1.0 73 1.5
 72
 73 74 1.0 75 1.5
 74
 75 76 1.5 110 1.0
 76 77 1.0 78 1.5
 77
 78 79 1.0
 79
 80 81 1.5 88 1.5
 81 82 1.0 83 1.5
 82
 83 84 1.0 85 1.5
 84
 85 86 1.5 114 1.0
 86 87 1.0 88 1.5
 87
 88 89 1.0
 89
 90 91 1.5 98 1.5
 91 92 1.0 93 1.5
 92
 93 94 1.0 95 1.5
 94
 95 96 1.5 118 1.0
 96 97 1.0 98 1.5
 97
 98 99 1.0
 99
 100 101 1.5 108 1.5
 101 102 1.0 103 1.5
 102
 103 104 1.0 105 1.5
 104
 105 106 1.5 122 1.0
 106 107 1.0 108 1.5
 107
 108 109 1.0
 109
 110 111 1.0 112 1.0 113 1.0
 111
 112
 113
 114 115 1.0 116 1.0 117 1.0
 115
 116
 117
 118 119 1.0 120 1.0 121 1.0
 119
 120
 121
 122 123 1.0 124 1.0 125 1.0
 123
 124
 125
 126

