%nprocshared=16
%mem=16GB
%chk=molec.chk
# b3lyp/6-311g(d,p) geom=connectivity

IT-4F-cut

0 1
 C                  8.62661100   -0.62106500   -0.00221500
 H                  8.75844600   -1.69552800    0.01553500
 C                  9.79875400    0.10765700   -0.00595800
 C                 11.15334800   -0.46242500    0.00660600
 C                  9.93584600    1.58728600    0.00241500
 O                  9.06527400    2.44057300   -0.01622300
 C                 12.11034900    0.67240500    0.05083000
 C                 11.38753600    1.87226400    0.04429900
 C                 13.50782400    0.71910000    0.09304800
 H                 14.14188200   -0.15445500    0.10229100
 C                 14.11474800    1.96450800    0.12643000
 F                 15.44960500    2.05047600    0.16897600
 C                 11.99298300    3.11937400    0.07585200
 H                 11.41068200    4.03228300    0.06895200
 C                 13.37485900    3.15263900    0.11747700
 F                 14.03141900    4.31787900    0.15071300
 C                 11.53016500   -1.79005600   -0.02767400
 C                 12.89129400   -2.21432100   -0.00931800
 N                 13.98243400   -2.59770900    0.00503100
 C                 10.62306500   -2.88809800   -0.09115100
 N                  9.92311700   -3.80794800   -0.14365600
 C                  7.25593900   -0.25991000   -0.01082200
 S                  6.10661200   -1.63058500    0.02743000
 C                  6.57716100    0.96052900   -0.05370000
 H                  7.10707600    1.89983300   -0.08280400
 C                  5.19487600    0.78729400   -0.05157900
 C                  4.75858300   -0.55447500   -0.00867200
 S                  3.84314200    1.91341900   -0.08788600
 C                  3.35559000   -0.67410900    0.01023300
 C                  2.74348300    0.56329400   -0.03107500
 C                  1.30605100    0.43198400   -0.02323500
 C                  1.02010600   -0.95585000    0.00698200
 C                  2.31798400   -1.79543900    0.02977000
 C                 -0.29034200   -1.39630300    0.03381900
 H                 -0.52828300   -2.45283000    0.06267800
 C                 -1.30605800   -0.43198700    0.02328000
 C                  0.29033500    1.39630000   -0.03377500
 H                  0.52827600    2.45282700   -0.06263500
 C                 -1.02011300    0.95584700   -0.00693600
 C                 -2.31799100    1.79543600   -0.02972600
 C                 -2.74349000   -0.56329600    0.03111700
 C                 -3.35559700    0.67410600   -0.01019500
 S                 -3.84314700   -1.91342300    0.08792400
 C                 -4.75859000    0.55447000    0.00870100
 S                 -6.10662100    1.63057700   -0.02741300
 C                 -5.19488300   -0.78730000    0.05160500
 C                 -6.57716700   -0.96053800    0.05371500
 H                 -7.10708100   -1.89984200    0.08281600
 C                 -7.25594600    0.25989900    0.01083000
 C                 -8.62661900    0.62105000    0.00221200
 H                 -8.75846100    1.69551400   -0.01553700
 C                 -9.79875900   -0.10767600    0.00594400
 C                -11.15335000    0.46240800   -0.00663000
 C                 -9.93585000   -1.58730400   -0.00243500
 O                 -9.06527700   -2.44059100    0.01619600
 C                -12.11035400   -0.67242200   -0.05088600
 C                -11.38754000   -1.87228200   -0.04435500
 C                -13.50782800   -0.71911900   -0.09313200
 H                -14.14188800    0.15443400   -0.10237900
 C                -14.11474900   -1.96452800   -0.12654300
 F                -15.44960500   -2.05049700   -0.16911800
 C                -11.99298500   -3.11939100   -0.07593700
 H                -11.41068300   -4.03229900   -0.06903600
 C                -13.37486000   -3.15265800   -0.11759100
 C                -11.53014400    1.79004500    0.02766300
 C                -12.89126200    2.21434600    0.00929100
 N                -13.98238500    2.59778400   -0.00506900
 C                -10.62301500    2.88806100    0.09116800
 N                 -9.92302500    3.80787700    0.14369500
 C                 -2.50972500    2.65819000    1.23675100
 C                 -3.44371300    3.70092900    1.24271000
 H                 -3.97332800    3.95735900    0.33295300
 C                 -3.69576800    4.43123800    2.39943100
 H                 -4.42831200    5.23140400    2.37020500
 C                 -3.02648900    4.15137200    3.59459600
 C                 -2.10082700    3.10557700    3.58720200
 H                 -1.56873800    2.85641100    4.49980200
 C                 -1.84626500    2.36986400    2.43234400
 H                 -1.12622600    1.56207200    2.47255200
 C                 -2.34229700    2.62248700   -1.33084200
 C                 -2.94654700    2.14083300   -2.49395500
 H                 -3.46618800    1.19045800   -2.48082100
 C                 -2.89010900    2.86433100   -3.68371100
 H                 -3.37292400    2.46334900   -4.56903700
 C                 -2.22977200    4.09161100   -3.75691600
 C                 -1.62165700    4.56988900   -2.59104300
 H                 -1.09870900    5.52087600   -2.61248300
 C                 -1.67734700    3.85320000   -1.40129700
 H                 -1.20983500    4.26549200   -0.51481300
 C                  2.34229400   -2.62248700    1.33088800
 C                  1.67729300   -3.85317200    1.40136800
 H                  1.20973800   -4.26544800    0.51490100
 C                  1.62160700   -4.56985300    2.59112000
 H                  1.09862000   -5.52081700    2.61257900
 C                  2.22977600   -4.09159500    3.75697300
 C                  2.89016100   -2.86434200    3.68374300
 H                  3.37301800   -2.46337500    4.56905300
 C                  2.94659500   -2.14085200    2.49398100
 H                  3.46627500   -1.19049900    2.48082900
 C                  2.50971600   -2.65818800   -1.23671100
 C                  3.44377700   -3.70085900   -1.24271700
 H                  3.97345900   -3.95725000   -0.33298800
 C                  3.69582900   -4.43114800   -2.39945300
 H                  4.42843200   -5.23126100   -2.37026600
 C                  3.02647500   -4.15132700   -3.59458500
 C                  2.10074000   -3.10559500   -3.58714500
 H                  1.56859200   -2.85646200   -4.49972000
 C                  1.84618100   -2.36990300   -2.43227500
 H                  1.12608600   -1.56215900   -2.47244600
 C                 -3.27951600    4.96596200    4.83933800
 H                 -2.64162200    5.85634600    4.86306600
 H                 -3.06942000    4.38893300    5.74256000
 H                 -4.31623600    5.30693400    4.88763500
 C                 -2.19672700    4.89142200   -5.03606600
 H                 -2.97253300    5.66469100   -5.03520400
 H                 -2.36767300    4.25628700   -5.90771800
 H                 -1.23583200    5.39536300   -5.16630500
 C                  2.19673400   -4.89139800    5.03612800
 H                  2.97251100   -5.66469600    5.03524900
 H                  1.23582300   -5.39530300    5.16639400
 H                  2.36772600   -4.25626500    5.90777200
 C                  3.27949200   -4.96589200   -4.83934500
 H                  3.06965500   -4.38875300   -5.74255800
 H                  2.64139500   -5.85612600   -4.86322600
 H                  4.31614000   -5.30709700   -4.88751900
 F                -14.03141800   -4.31789900   -0.15085500

 1 2 1.0 3 2.0 22 1.5
 2
 3 4 1.0 5 1.0
 4 7 1.0 17 2.0
 5 6 2.0 8 1.0
 6
 7 8 1.5 9 1.5
 8 13 1.5
 9 10 1.0 11 2.0
 10
 11 12 1.0 15 1.5
 12
 13 14 1.0 15 2.0
 14
 15 16 1.0
 16
 17 18 1.5 20 1.5
 18 19 3.0
 19
 20 21 3.0
 21
 22 23 1.0 24 1.5
 23 27 1.0
 24 25 1.0 26 1.5
 25
 26 27 1.5 28 1.0
 27 29 1.5
 28 30 1.0
 29 30 2.0 33 1.0
 30 31 1.5
 31 32 1.5 37 1.5
 32 33 1.0 34 2.0
 33 90 1.0 100 1.0
 34 35 1.0 36 1.5
 35
 36 39 1.5 41 1.5
 37 38 1.0 39 2.0
 38
 39 40 1.0
 40 42 1.0 70 1.0 80 1.0
 41 42 2.0 43 1.0
 42 44 1.5
 43 46 1.0
 44 45 1.0 46 1.5
 45 49 1.0
 46 47 1.5
 47 48 1.0 49 1.5
 48
 49 50 1.5
 50 51 1.0 52 2.0
 51
 52 53 1.0 54 1.0
 53 56 1.0 65 2.0
 54 55 2.0 57 1.0
 55
 56 57 1.5 58 1.5
 57 62 1.5
 58 59 1.0 60 2.0
 59
 60 61 1.0 64 1.5
 61
 62 63 1.0 64 2.0
 63
 64 126 1.0
 65 66 1.5 68 1.5
 66 67 3.0
 67
 68 69 3.0
 69
 70 71 1.5 78 1.5
 71 72 1.0 73 1.5
 72
 73 74 1.0 75 1.5
 74
 75 76 1.5 110 1.0
 76 77 1.0 78 1.5
 77
 78 79 1.0
 79
 80 81 1.5 88 1.5
 81 82 1.0 83 1.5
 82
 83 84 1.0 85 1.5
 84
 85 86 1.5 114 1.0
 86 87 1.0 88 1.5
 87
 88 89 1.0
 89
 90 91 1.5 98 1.5
 91 92 1.0 93 1.5
 92
 93 94 1.0 95 1.5
 94
 95 96 1.5 118 1.0
 96 97 1.0 98 1.5
 97
 98 99 1.0
 99
 100 101 1.5 108 1.5
 101 102 1.0 103 1.5
 102
 103 104 1.0 105 1.5
 104
 105 106 1.5 122 1.0
 106 107 1.0 108 1.5
 107
 108 109 1.0
 109
 110 111 1.0 112 1.0 113 1.0
 111
 112
 113
 114 115 1.0 116 1.0 117 1.0
 115
 116
 117
 118 119 1.0 120 1.0 121 1.0
 119
 120
 121
 122 123 1.0 124 1.0 125 1.0
 123
 124
 125
 126

