%nprocshared=20
%mem=16GB
# polar cam-b3lyp/6-311g(d,p) td=(nstates=1, root=1) nosymm density=current

TITLE

 0  1
S          1.44147       -7.40143       -1.17646
Cl         1.29374        5.00795       -3.24479
N         -5.39010       -1.51736       -1.60945
S          0.50752       -3.13652       -1.81835
Cl        -1.78424        5.81499       -3.13154
C          2.84777       -5.27233       -1.66302
H          3.12276       -4.24748       -1.87139
C          3.97674       -9.96446       -0.94824
H          2.99879      -10.40036       -0.78338
C          5.84411       -4.73071       -3.39012
H          5.75328       -3.99465       -2.60018
O         -1.25333       -6.50456       -1.11014
C          5.80873       -6.99564       -4.13589
H          5.67417       -8.05310       -3.94970
C          5.26276       -6.50917       -1.67999
O          0.68639       -0.47687       -2.27602
C          5.45550       -5.41049        0.61547
H          4.40046       -5.59685        0.77190
C          4.11954       -8.60406       -1.20690
C         -1.84148       -4.14279       -1.45943
H         -2.91468       -4.22059       -1.35985
C          5.11909      -10.73749       -0.90931
C          0.37376       -4.83248       -1.52393
C          3.75553       -6.33683       -1.55191
C          5.67841       -6.08476       -3.09536
C          3.14505       -7.53427       -1.29641
C          6.05037       -5.77276       -0.58824
C         -0.95429       -5.21147       -1.35214
C          1.54038       -5.67203       -1.48023
C         -1.22119       -2.92278       -1.71415
C         -0.53825        1.56964       -2.52098
C         -2.00494       -1.75111       -1.84686
H         -3.05196       -1.99125       -1.72226
C          6.13632       -4.31011       -4.67527
H          6.25821       -3.25023       -4.87247
C         -0.36856        0.11768       -2.29117
C         -2.62059       -6.84390       -0.94903
H         -3.19126       -6.61441       -1.85336
H         -3.05714       -6.32010       -0.09387
C         -4.77740       -0.56720       -1.81901
C          7.55424       -4.56247        1.47492
C         -1.71868       -0.43568       -2.08985
C          6.10421       -6.56880       -5.42486
H          6.19948       -7.30471       -6.21592
C          0.06755        3.82260       -2.94728
C          0.44556        2.50187       -2.75652
H          1.48653        2.20880       -2.79132
C          7.41307       -5.52392       -0.74189
H          7.90555       -5.78384       -1.67100
C          6.27617       -5.22306       -5.71931
C          6.19602       -4.81558        1.62702
H          5.70294       -4.54364        2.55415
C         -1.89085        1.89876       -2.46697
C         -2.67795        0.66537       -2.19659
C          8.34935       -3.88707        2.55936
H          7.90699       -4.05916        3.54166
H          9.37811       -4.25063        2.58255
C          8.14907       -4.93198        0.27152
H          9.20829       -4.75109        0.12220
C          6.61900       -4.75989       -7.10937
H          6.02840       -3.88632       -7.39271
H          6.43635       -5.54406       -7.84507
C         -1.28500        4.17308       -2.89682
C         -2.26948        3.22025       -2.65776
H         -3.29698        3.54617       -2.62942
C         -4.03898        0.62503       -2.07924
N         -5.56292        2.68916       -2.30147
C         -4.86838        1.77843       -2.20524
S          9.05910      -11.35943       -1.16614
Cl         9.20695      -23.76885        0.90226
N         15.89072      -17.24350       -0.73318
S          9.99305      -15.62435       -0.52426
Cl        12.28495      -24.57584        0.78901
C          7.65279      -13.48853       -0.67959
H          7.37781      -14.51338       -0.47121
C          6.52383       -8.79640       -1.39437
H          7.50177       -8.36051       -1.55922
C          4.65646      -14.03016        1.04750
H          4.74728      -14.76622        0.25756
O         11.75390      -12.25629       -1.23245
C          4.69182      -11.76523        1.79328
H          4.82637      -10.70778        1.60710
C          5.23780      -12.25169       -0.66262
O          9.81420      -18.28403       -0.06660
C          5.04507      -13.35041       -2.95806
H          6.10011      -13.16407       -3.11448
C          6.38102      -10.15681       -1.13570
C         12.34205      -14.61807       -0.88316
H         13.41525      -14.54027       -0.98273
C          5.38147       -8.02337       -1.43329
C         10.12680      -13.92838       -0.81868
C          6.74503      -12.42403       -0.79069
C          4.82215      -12.67611        0.75275
C          7.35551      -11.22659       -1.04619
C          4.45020      -12.98810       -1.75437
C         11.45485      -13.54939       -0.99045
C          8.96019      -13.08883       -0.86238
C         11.72176      -15.83808       -0.62845
C         11.03887      -20.33052        0.17838
C         12.50551      -17.00975       -0.49574
H         13.55253      -16.76959       -0.62033
C          4.36424      -14.45077        2.33265
H          4.24234      -15.51065        2.52984
C         10.86916      -18.87857       -0.05144
C         13.12116      -11.91694       -1.39347
H         13.69178      -12.14645       -0.48910
H         13.55777      -12.44071       -2.24862
C         15.27800      -18.19366       -0.52370
C          2.94632      -14.19840       -3.81752
C         12.21927      -18.32519       -0.25278
C          4.39633      -12.19208        3.08225
H          4.30104      -11.45617        3.87331
C         10.43312      -22.58349        0.60472
C         10.05508      -21.26276        0.41394
H          9.01411      -20.96972        0.44875
C          3.08749      -13.23692       -1.60073
H          2.59500      -12.97698       -0.67162
C          4.22438      -13.53782        3.37670
C          4.30455      -13.94532       -3.96962
H          4.79763      -14.21728       -4.89673
C         12.39148      -20.65962        0.12436
C         13.17856      -19.42622       -0.14604
C          2.15118      -14.87378       -4.90194
H          2.59409      -14.70255       -5.88414
H          1.12270      -14.50947       -4.92578
C          2.35148      -13.82886       -2.61412
H          1.29225      -14.00973       -2.46481
C          3.88159      -14.00101        4.76676
H          4.47277      -14.87411        5.05036
H          4.06351      -13.21660        5.50237
C         11.78568      -22.93394        0.55426
C         12.77014      -21.98110        0.31518
H         13.79765      -22.30700        0.28684
C         14.53959      -19.38588       -0.26343
N         16.06349      -21.45003       -0.04119
C         15.36898      -20.53929       -0.13742
H         -2.64597       -7.91531       -0.76788
H          8.38759       -2.80550        2.40072
H          2.11205      -15.95524       -4.74274
H         13.14655      -10.84553       -1.57458
H          7.67316       -4.47762       -7.18030
H          2.82762      -14.28405        4.83751


