%nprocshared=20
%mem=16GB
%chk=sN_z.chk
# cam-b3lyp/6-311g(d,p) td=(nstates=1, root=1) nosymm Field=Z+1 density=current

TITLE

 0  1
S          9.66990       15.23792        6.98809
S          8.93370       10.92973        6.36871
O         11.59535       11.92336        6.48103
O          9.36874       17.89477        7.37363
C          8.75198       12.65892        6.63270
C          9.88385       13.54138        6.74107
C          4.52704       12.12009        7.96139
C          4.35428       11.22286        9.00748
H          4.53847       10.16801        8.85159
C         11.23141       13.20912        6.67315
C         11.39201       15.51217        7.00358
C          7.42229       13.01269        6.71648
H          7.09722       14.02994        6.88635
C         10.39515       18.53352        7.45322
C          7.23107       10.73529        6.37186
C          6.56262       11.91291        6.56196
C         12.12472       16.71694        7.16730
H         13.18537       16.51093        7.12314
C          4.98852       12.75318        4.26958
H          6.05990       12.61610        4.19519
C          5.05710       11.68741        6.58745
C         11.77652       18.02256        7.36046
C         12.07133       14.31317        6.82072
H         13.15099       14.27296        6.80004
C          4.32264       12.37596        5.42952
C          4.29321       13.47207        8.21732
H          4.41500       14.19739        7.42161
C          3.95246       11.66046       10.26377
H          3.82632       10.93495       11.06013
C          5.00933       10.16585        6.36190
C          6.51234        8.27041        6.01284
C         12.68502       19.16286        7.51301
C         10.49485       19.99293        7.66445
C          6.30390        9.62878        6.23497
C         14.05189       19.16669        7.49296
C         14.84716       17.99663        7.31006
C         11.83773       20.37059        7.70103
C          4.29967       13.30749        3.19866
H          4.84900       13.59784        2.30965
C          2.25937       13.12089        4.40997
H          1.18630       13.26457        4.48205
C         11.12084       22.62583        8.03980
H         11.36284       23.67099        8.18896
C         12.98189       11.63420        6.42779
H         13.46132       12.15793        5.59577
H         13.06050       10.56124        6.27236
C          2.94240       12.57025        5.48071
H          2.39550       12.30415        6.37706
C          2.92512       13.50027        3.24619
C         12.15756       21.71166        7.89222
H         13.17742       22.06062        7.92911
C          9.78687       22.23125        8.00049
H          9.00448       22.97077        8.11902
N         15.50048       21.27713        7.77853
C         14.83561       20.34792        7.65321
C          9.46163       20.89590        7.81020
H          8.43555       20.55146        7.77395
N         15.50731       17.06644        7.16407
C          3.71313       13.00376       10.51910
C          3.89520       13.90346        9.46999
H          3.72263       14.96145        9.63745
H         13.47582       11.90261        7.36603
C          2.17236       14.08607        2.08215
C          3.25739       13.47823       11.87251
H          1.57546       13.32177        1.57693
H          2.85242       14.51567        1.34570
H          1.48719       14.87184        2.40745
H          3.39219       12.70502       12.62981
H          2.19760       13.74762       11.85821
H          3.81373       14.36262       12.19001
H          7.51446        7.86848        5.92439
S          0.74312        2.38310        5.28296
S          1.47933        6.69123        5.90273
O         -1.18232        5.69754        5.79088
O          1.04426       -0.27368        4.89688
C          1.66104        4.96205        5.63872
C          0.52917        4.07960        5.53033
C          5.88598        5.50089        4.31001
C          6.05875        6.39812        3.26393
H          5.87458        7.45297        3.41982
C         -0.81839        4.41182        5.59849
C         -0.97899        2.10882        5.26769
C          2.99073        4.60828        5.55494
H          3.31580        3.59103        5.38508
C          0.01785       -0.91243        4.81735
C          3.18195        6.88568        5.89954
C          3.85040        5.70807        5.70944
C         -1.71171        0.90407        5.10385
H         -2.77235        1.11006        5.14822
C          5.42450        4.86780        8.00182
H          4.35312        5.00487        8.07621
C          5.35593        5.93356        5.68395
C         -1.36352       -0.40151        4.91040
C         -1.65831        3.30778        5.45085
H         -2.73797        3.34797        5.47170
C          6.09038        5.24501        6.84188
C          6.11980        4.14890        4.05407
H          5.99800        3.42358        4.84978
C          6.46059        5.96053        2.00764
H          6.58674        6.68604        1.21128
C          5.40370        7.45512        5.90950
C          3.90068        9.35056        6.25856
C         -2.27202       -1.54179        4.75779
C         -0.08187       -2.37181        4.60588
C          4.10912        7.99219        6.03643
C         -3.63889       -1.54565        4.77804
C         -4.43415       -0.37564        4.96129
C         -1.42474       -2.74948        4.56944
C          6.11334        4.31348        9.07275
H          5.56402        4.02314        9.96176
C          8.15364        4.50007        7.86143
H          9.22672        4.35640        7.78935
C         -0.70787       -5.00465        4.23017
H         -0.94988       -6.04979        4.08087
C         -2.56886        5.98667        5.84441
H         -3.04814        5.46278        6.67642
H         -2.64746        7.05959        6.00004
C          7.47063        5.05071        6.79069
H          8.01752        5.31681        5.89434
C          7.48790        4.12070        9.02521
C         -1.74458       -4.09052        4.37807
H         -2.76444       -4.43949        4.34128
C          0.62610       -4.61006        4.26935
H          1.40848       -5.34954        4.15057
N         -5.08749       -3.65607        4.49237
C         -4.42262       -2.72687        4.61773
C          0.95135       -3.27474        4.45981
H          1.97743       -2.93029        4.49597
N         -5.09429        0.55451        5.10755
C          6.69990        4.61722        1.75230
C          6.51781        3.71752        2.80140
H          6.69038        2.65952        2.63394
H         -3.06294        5.71841        4.90620
C          8.24066        3.53488       10.18924
C          7.15564        4.14275        0.39889
H          8.83768        4.29915       10.69438
H          7.56058        3.10541       10.92577
H          8.92571        2.74901        9.86396
H          7.02093        4.91600       -0.35839
H          8.21540        3.87326        0.41321
H          6.59922        3.25842        0.08134
H          2.89857        9.75249        6.34701


