%nprocshared=20
%mem=16GB
%chk=cC.chk
#P opt  cam-b3lyp/6-311G(d,p) nosymm 

TITLE

 1  2
S          1.73831       -6.07833       18.17422
S          1.35264       -1.82538       15.10424
S          1.63730        2.37893       15.74892
S          2.02305       -4.63077       23.22268
S          1.59463       -0.94273       25.31740
N          1.88373       -5.46703       19.70340
N          1.55575       -4.65643       17.35077
O          1.72883        4.97711       15.28237
N          1.69141       -0.04366       18.52927
C          1.79255       -4.15228       19.59691
N          1.58444       -1.12318       21.63379
O          1.41388        0.80233       27.29193
C          1.60516       -3.68809       18.24973
C          1.80726       -3.20175       20.67004
C          1.47474       -1.54428       16.82058
F          1.06218        4.29630       31.32447
C          1.56762        0.66812       16.04607
F          1.89246       10.22813       14.28605
C          1.54744       -2.27828       17.99586
C          1.46336        0.34947       28.42190
C          1.44903       -0.07230       14.85382
C          1.66433       -1.78986       20.40840
C          1.64668       -1.32817       19.07740
C          1.71600       -2.09853       24.02534
F          1.76804       10.24496       11.62050
C          1.87040       -3.35143       22.04807
C          1.59075        4.42508       12.92783
C          1.51663        3.05633       12.95987
H          1.43822        2.57452       11.99576
C          1.57243       -0.17348       17.16360
C          1.72416       -2.06689       22.62673
C          1.68747        5.31981       14.11396
C          1.87375       -3.41373       24.50402
N          1.40861        2.44233        9.61102
F          1.23684        2.66466       33.42885
C          1.41971        0.70244       13.69472
C          1.51791        2.08424       14.00280
C          1.61551       -1.08257       28.79997
C          1.58008        5.28372       11.72889
C          1.45930        3.53671        9.98190
C          1.61973       -1.15051       30.27313
C          1.73396       -2.13388       27.92779
C          1.72677       -2.26863       31.06877
C          1.74733       -2.25100       26.50697
C          1.72047        6.69871       13.60368
C          1.65539        6.68587       12.20020
C          1.67100        7.89961       11.50520
H          1.62403        7.98199       10.42967
C          1.75123        9.06883       12.24419
C          1.81651        9.06234       13.64623
C          1.80163        7.86997       14.34480
H          1.85137        7.85853       15.42627
C          1.89381       -3.52258       25.89410
C          1.47903        0.23747       30.77067
C          1.38628        1.11354       29.67612
C          1.24488        2.48735       29.81885
C          1.19640        2.98929       31.10558
C          1.28825        2.12923       32.21097
C          1.42895        0.75834       32.06782
C          1.51984        5.82031        9.32457
N          1.96154       -4.68084       30.17855
C          1.85595       -3.59556       30.56433
N          1.51646        6.54450        8.42379
C          1.71733       -2.21417       32.49380
C          2.05173       -4.82207       26.63148
C          1.52128        4.89501       10.40975
H          1.84383       -3.10591       28.38701
H          1.17495        3.14575       28.96223
H          1.49339        0.15915       32.96368
C          2.18386        1.18952       19.14891
C          1.04398        0.21138       21.90590
N          1.71323       -2.20334       33.64954
C          1.29640        0.13445       12.30924
H          2.13568       -5.65403       25.93164
H          1.20039       -5.02467       27.28567
H          2.94672       -4.82547       27.25850
H          1.36762        1.83549       19.47525
H          2.78662        1.72802       18.41794
H          2.82621        0.94633       19.99226
H          0.43202        0.16065       22.80622
H          0.40046        0.52180       21.08584
H          1.83441        0.94736       22.05955
H          1.26330       -0.95498       12.34143
H          2.13789        0.42122       11.67428
H          0.38627        0.47859       11.81155


