%nprocshared=20
%mem=16GB
# polar cam-b3lyp/6-311g(d,p) nosymm 

TITLE

 0  1
S          1.74419       -6.07992       18.17366
S          1.31441       -1.80856       15.09396
S          1.62827        2.34587       15.76700
S          2.06723       -4.62201       23.24180
S          1.60568       -0.95689       25.28261
N          1.92230       -5.47185       19.68537
N          1.52786       -4.67273       17.36141
O          1.72914        4.99503       15.31161
N          1.67530       -0.09363       18.52145
C          1.81854       -4.16400       19.59004
N          1.60638       -1.16652       21.60895
O          1.41635        0.83513       27.28011
C          1.58837       -3.70238       18.24746
C          1.85206       -3.21581       20.65970
C          1.44147       -1.54691       16.80574
F          1.08618        4.30979       31.29130
C          1.54656        0.65131       16.03580
F          1.88449       10.21641       14.31951
C          1.51025       -2.29728       17.99458
C          1.46383        0.36401       28.39506
C          1.42252       -0.06958       14.85093
C          1.69096       -1.84161       20.40367
C          1.62742       -1.37247       19.04858
C          1.74084       -2.11704       24.02314
F          1.76497       10.23794       11.66598
C          1.91006       -3.36109       22.05852
C          1.59324        4.43053       12.96730
C          1.51124        3.06503       12.99582
H          1.42820        2.59186       12.02824
C          1.54878       -0.21083       17.15368
C          1.75351       -2.10121       22.61158
C          1.68793        5.31434       14.14385
C          1.90407       -3.41201       24.50834
N          1.44715        2.46444        9.63965
F          1.24639        2.68802       33.38900
C          1.39766        0.72555       13.70199
C          1.50519        2.08787       14.01980
C          1.60810       -1.05417       28.77229
C          1.58765        5.27942       11.77270
C          1.48893        3.54908       10.01970
C          1.60310       -1.12778       30.23594
C          1.73584       -2.10465       27.90493
C          1.68754       -2.23325       31.03538
C          1.76027       -2.23683       26.49593
C          1.72062        6.70018       13.63201
C          1.65871        6.68850       12.24057
C          1.67325        7.89743       11.54872
H          1.62819        7.98198       10.47384
C          1.74948        9.06013       12.28722
C          1.81195        9.05153       13.67907
C          1.79814        7.86292       14.37361
H          1.84574        7.84513       15.45469
C          1.91742       -3.49869       25.90305
C          1.47299        0.26428       30.74059
C          1.38884        1.13271       29.65486
C          1.25745        2.50086       29.79205
C          1.21120        3.00242       31.07334
C          1.29510        2.14965       32.17195
C          1.42530        0.78340       32.03234
C          1.54368        5.83831        9.38103
N          1.88675       -4.65048       30.16908
C          1.79775       -3.56613       30.54177
N          1.54375        6.56714        8.49240
C          1.66877       -2.16821       32.46024
C          2.08769       -4.78883       26.64647
C          1.54041        4.90430       10.45919
H          1.84846       -3.07209       28.37222
H          1.19366        3.15456       28.93186
H          1.48417        0.18581       32.92898
C          2.19533        1.11523       19.14407
C          1.03752        0.14931       21.86287
N          1.65696       -2.14682       33.60927
C          1.26254        0.16762       12.31758
H          2.11143       -5.62872       25.95294
H          1.27673       -4.96569       27.35443
H          3.01905       -4.80259       27.21647
H          1.39942        1.78635       19.46901
H          2.81876        1.64010       18.42114
H          2.82186        0.85259       19.99291
H          0.40522        0.09168       22.74813
H          0.41013        0.44738       21.02647
H          1.80584        0.90445       22.03285
H          1.28938       -0.92129       12.34075
H          2.06230        0.50536       11.65709
H          0.31864        0.46659       11.85675


