%nprocshared=20
%mem=16GB
#P polar  b3lyp/6-311G(d,p) nosymm 

TITLE

-1 2
S          1.42012       -7.41492       -1.18796
Cl         1.27853        5.09603       -3.25797
N         -5.47299       -1.45358       -1.59379
S          0.49456       -3.10369       -1.83418
Cl        -1.83051        5.89448       -3.12169
C          2.84436       -5.26660       -1.67836
H          3.11512       -4.24015       -1.88559
C          3.97156       -9.97298       -0.95208
H          2.99196      -10.40822       -0.79216
C          5.84286       -4.70869       -3.41229
H          5.73874       -3.96889       -2.62704
O         -1.28525       -6.49848       -1.11769
C          5.82715       -6.98499       -4.15379
H          5.69954       -8.04309       -3.96414
C          5.26294       -6.49447       -1.68990
O          0.68396       -0.42239       -2.29514
C          5.44772       -5.37947        0.61236
H          4.39056       -5.56034        0.76258
C          4.10785       -8.59791       -1.21451
C         -1.87182       -4.13460       -1.46228
H         -2.94473       -4.21334       -1.35854
C          5.11386      -10.74476       -0.90522
C          0.36452       -4.83096       -1.53585
C          3.74680       -6.32361       -1.56761
C          5.68434       -6.06847       -3.11099
C          3.14119       -7.54445       -1.30856
C          6.05006       -5.75119       -0.59228
C         -0.98645       -5.19672       -1.36048
C          1.51250       -5.66007       -1.49527
C         -1.25914       -2.88901       -1.72113
C         -0.55171        1.62791       -2.52846
C         -2.02819       -1.72582       -1.84814
H         -3.07854       -1.95267       -1.72128
C          6.13965       -4.28842       -4.70274
H          6.25175       -3.22691       -4.90162
C         -0.38641        0.16788       -2.30128
C         -2.65724       -6.83913       -0.94965
H         -3.23411       -6.60661       -1.85081
H         -3.09135       -6.31463       -0.09205
C         -4.82400       -0.51644       -1.80539
C          7.55248       -4.52775        1.48370
C         -1.73405       -0.38013       -2.09526
C          6.12689       -6.55868       -5.44751
H          6.23064       -7.29817       -6.23548
C          0.04200        3.89608       -2.95363
C          0.42863        2.56674       -2.76768
H          1.47101        2.27746       -2.80957
C          7.42036       -5.50407       -0.73854
H          7.91923       -5.77098       -1.66275
C          6.29162       -5.20680       -5.74797
C          6.18675       -4.77889        1.62889
H          5.68684       -4.50058        2.55151
C         -1.91463        1.94972       -2.46427
C         -2.68473        0.70280       -2.19216
C          8.34470       -3.84555        2.57272
H          7.89744       -4.01387        3.55510
H          9.37507       -4.20872        2.60316
C          8.15502       -4.90613        0.28014
H          9.21645       -4.72942        0.13462
C          6.63734       -4.74494       -7.14300
H          6.04013       -3.87630       -7.43374
H          6.46396       -5.53449       -7.87731
C         -1.31258        4.23864       -2.89340
C         -2.29936        3.27531       -2.64962
H         -3.32892        3.59530       -2.61367
C         -4.07565        0.66417       -2.06563
N         -5.61163        2.72669       -2.27402
C         -4.90268        1.81404       -2.18437
S          9.08046      -11.34595       -1.15466
Cl         9.22207      -23.85688        0.91542
N         15.97363      -17.30733       -0.74888
S         10.00602      -15.65718       -0.50842
Cl        12.33111      -24.65533        0.77916
C          7.65622      -13.49427       -0.66426
H          7.38546      -14.52071       -0.45702
C          6.52901       -8.78788       -1.39055
H          7.50862       -8.35265       -1.55047
C          4.65771      -14.05219        1.06966
H          4.76183      -14.79198        0.28440
O         11.78583      -12.26238       -1.22492
C          4.67341      -11.77588        1.81116
H          4.80101      -10.71779        1.62151
C          5.23764      -12.26640       -0.65272
O          9.81663      -18.33847       -0.04744
C          5.05286      -13.38143       -2.95497
H          6.11002      -13.20058       -3.10518
C          6.39273      -10.16296       -1.12812
C         12.37241      -14.62626       -0.88030
H         13.44531      -14.54751       -0.98404
C          5.38672       -8.01610       -1.43741
C         10.13606      -13.92991       -0.80676
C          6.75378      -12.43726       -0.77501
C          4.81624      -12.69240        0.76837
C          7.35939      -11.21642       -1.03406
C          4.45052      -13.00968       -1.75035
C         11.48703      -13.56414       -0.98212
C          8.98808      -13.10079       -0.84735
C         11.75973      -15.87185       -0.62145
C         11.05230      -20.38877        0.18590
C         12.52877      -17.03504       -0.49443
H         13.57912      -16.80818       -0.62128
C          4.36092      -14.47246        2.36010
H          4.24881      -15.53397        2.55898
C         10.88700      -18.92874       -0.04128
C         13.15782      -11.92172       -1.39291
H         13.73466      -12.15425       -0.49173
H         13.59196      -12.44622       -2.25049
C         15.32459      -18.24442       -0.53717
C          2.94810      -14.23313       -3.82632
C         12.23464      -18.38073       -0.24730
C          4.37366      -12.20220        3.10488
H          4.26990      -11.46272        3.89285
C         10.45859      -22.65694        0.61108
C         10.07196      -21.32760        0.42512
H          9.02958      -21.03832        0.46700
C          3.08021      -13.25678       -1.60410
H          2.58133      -12.98985       -0.67989
C          4.20894      -13.55409        3.40534
C          4.31383      -13.98202       -3.97150
H          4.81374      -14.26035       -4.89411
C         12.41522      -20.71057        0.12172
C         13.18532      -19.46365       -0.15039
C          2.15585      -14.91531       -4.91533
H          2.60366      -14.74783       -5.89760
H          1.12576      -14.55141       -4.94640
C          2.34554      -13.85472       -2.62276
H          1.28412      -14.03141       -2.47726
C          3.86326      -14.01597        4.80037
H          4.46104      -14.88413        5.09137
H          4.03593      -13.22617        5.53459
C         11.81318      -22.99949        0.55086
C         12.79996      -22.03616        0.30709
H         13.82952      -22.35615        0.27114
C         14.57624      -19.42502       -0.27692
N         16.11223      -21.48754       -0.06850
C         15.40327      -20.57489       -0.15817
H         -2.67960       -7.91236       -0.76969
H          8.38479       -2.76229        2.41238
H          2.11489      -15.99846       -4.75444
H         13.18018      -10.84849       -1.57286
H          7.69089       -4.45282       -7.21403
H          2.80991      -14.30884        4.87123


